850
Lattice="40.0 0.0 0.0 0.0 40.0 0.0 0.0 0.0 40.0" Properties=species:S:1:pos:R:3 pbc="T T T"
O       16.06910000       8.45649000      20.75530000
O       16.28490000       7.87940000      18.09590000
O       19.13740000       9.85217000      25.56800000
O       17.73300000      14.58330000      11.50860000
O       14.68790000      17.98260000      11.32990000
O       17.57050000      18.95530000       8.80221000
O       17.14640000       9.95183000      14.54710000
O       14.06180000      15.35830000      14.47330000
O       17.94680000      12.15960000      12.93330000
O       17.92410000      13.36220000      15.48930000
O       10.45290000      17.90540000      15.12980000
O       12.57180000      17.72160000      13.14030000
O       13.52790000      20.07860000      14.02260000
O       16.02210000      16.14670000      12.86070000
O       17.67140000      17.84100000      14.17970000
O       12.33570000      16.46160000      16.68120000
O       15.67380000      14.28310000      16.67320000
O       14.79640000      19.28460000       9.00042000
O       18.97050000      10.91720000      16.37340000
O       20.22980000      14.75050000      15.16720000
O       19.04990000       8.48124000      17.76720000
O       11.02110000      14.65830000      18.39430000
O       12.04730000      12.23840000      18.60550000
O       11.48620000      18.13750000      26.24500000
O       14.76400000      12.16980000      18.09670000
O       15.18870000       9.78622000      16.70210000
O       17.08830000      15.87520000      18.48790000
O       12.21140000      18.86130000      19.97470000
O       17.30320000      10.97510000      23.83740000
O       14.35240000      18.07680000      17.60020000
O       13.16160000      13.29660000      24.19680000
O       16.89740000      17.89660000      16.70920000
O       14.85140000      10.56820000      22.23460000
O       18.26260000      10.29630000      21.21190000
O       11.36680000      14.24270000      22.17480000
O       12.48070000      11.64150000      21.34820000
O       14.83510000      14.33880000      22.31350000
O       15.94190000      12.51170000      20.61070000
O       18.45400000      13.50060000      21.41420000
O        9.40566000      15.59460000      20.79310000
O       12.14650000      18.15920000      23.49650000
O       13.23760000      16.36340000      21.59470000
O       16.43380000      18.05180000      22.53620000
O       15.40120000      17.38400000      20.06210000
O       18.65580000      19.60080000      22.23400000
O        9.68079000      20.38260000      15.72790000
O       19.47760000      14.69260000      19.15280000
O       14.15800000      14.43200000      26.41240000
O       17.93400000      13.47520000      24.84610000
O       10.08410000      20.32190000      25.38580000
O       15.21170000      18.75410000      24.92840000
O       18.65160000      19.30020000      25.56700000
O       15.34560000      12.32500000      27.73260000
O       17.75420000      13.56490000      27.62130000
O       12.50930000      16.08330000      27.93250000
O       14.70240000      17.52360000      28.55960000
O       16.06730000      16.46300000      26.28700000
O       18.58390000      17.92900000      30.21990000
O       17.21800000      15.41930000      23.02780000
O       12.48390000      21.09000000      23.61080000
O       13.63550000      19.72040000      27.15770000
O       18.16370000      19.63740000      28.19540000
O       20.09620000      17.35660000      22.99530000
O       18.82500000      15.12800000      29.76800000
O       20.58090000      22.13770000       8.57861000
O       13.84980000      21.88830000      10.01000000
O       17.64240000      29.30320000      14.57420000
O       18.04320000      21.51320000       9.80345000
O       17.83910000      26.08780000      11.63450000
O       10.32120000      22.68450000      14.01400000
O       12.62170000      22.20460000      12.47000000
O       14.31360000      23.87190000      16.49400000
O       16.06670000      19.70940000      13.09700000
O       16.40780000      28.25050000      12.34130000
O       16.97850000      22.25800000      13.37140000
O       13.92000000      24.66650000      12.72310000
O       13.86930000      27.52010000      13.78280000
O       16.04680000      23.66600000      11.10730000
O       18.15600000      25.26710000      14.26480000
O       13.66130000      20.49590000      16.68900000
O       11.66050000      23.82730000      16.03280000
O       13.05310000      28.00400000      16.52930000
O       19.39190000      22.30130000      12.09600000
O       20.36340000      18.34730000      14.84110000
O       17.24070000      27.85250000      22.92030000
O       11.31950000      21.63390000      17.65690000
O       16.13230000      23.28390000      26.03560000
O       13.79900000      23.86740000      19.21510000
O       16.04880000      21.88350000      16.00350000
O       14.09090000      24.60800000      23.30790000
O       20.15630000      20.84190000      15.91700000
O       11.03800000      26.18780000      17.38880000
O       16.68090000      21.06140000      24.49280000
O       15.63460000      27.09290000      17.39910000
O       15.63140000      25.76590000      15.08220000
O       20.40820000      25.66460000      17.43410000
O        8.54709000      20.14580000      23.12600000
O       16.21100000      30.39060000      22.71110000
O       16.42850000      29.71420000      17.13000000
O       17.98980000      30.78770000      19.15820000
O       16.36680000      25.43660000      19.35380000
O       10.01510000      18.17970000      21.73820000
O       10.32120000      22.38520000      22.51310000
O       13.72170000      21.28870000      20.05680000
O       13.28000000      29.47310000      22.81020000
O       14.88910000      22.09830000      22.62730000
O       17.82240000      20.31030000      17.29540000
O       18.29200000      20.90720000      19.86020000
O       10.40970000      22.92700000      19.93320000
O       11.53260000      25.22190000      22.46410000
O       11.96470000      25.62320000      19.83790000
O       15.41470000      26.38700000      21.65290000
O       16.77360000      22.95890000      20.63420000
O       19.01490000      25.78800000      19.75010000
O       13.59350000      27.98620000      20.31230000
O       19.91780000      23.57910000      15.59150000
O       18.61600000      24.12990000      22.22030000
O       19.60590000      27.36370000      15.31780000
O       20.08130000      21.90790000      22.98280000
O       19.29390000      28.65390000      20.01990000
O       20.90550000      20.85250000      19.08010000
O        9.65159000      23.19190000      25.37390000
O       13.48720000      22.21640000      26.10400000
O       19.25170000      22.44610000      25.56380000
O       13.55580000      25.93280000      25.64970000
O       18.05270000      24.90590000      24.85480000
O       17.00530000      28.68570000      25.51790000
O       16.02900000      18.48820000      30.81290000
O       15.84500000      20.82850000      29.19240000
O       15.07910000      27.51470000      27.36830000
O       19.61330000      24.06140000      29.31170000
O       11.67360000      24.15150000      26.83240000
O       16.98710000      23.46020000      28.67620000
O       16.88550000      26.30290000      28.88010000
O       11.94930000      27.52770000      24.25930000
O       18.55570000      26.88030000      26.77680000
O       15.53840000      31.64550000      20.28900000
O       14.07970000      30.12790000      18.57640000
O       18.55240000      30.91050000      24.47070000
O       21.17710000       8.00554000      16.16570000
O       21.34850000       8.95651000      24.15560000
O       19.96560000       8.27006000      20.28840000
O       24.89400000       9.04014000      18.55440000
O       18.30260000      15.99840000       9.15369000
O       21.64210000      13.60560000      11.15580000
O       29.21130000      20.04460000      15.22370000
O       20.71840000      17.21880000       9.31529000
O       24.72360000      18.93020000       9.54877000
O       22.15450000       9.32218000      13.75600000
O       20.78170000      11.44320000      12.72260000
O       21.20390000      12.16150000      15.37730000
O       24.11300000      14.37110000      11.29830000
O       24.65840000      13.63170000      13.89850000
O       20.16200000      15.51150000      12.54450000
O       26.98770000      18.96270000      11.40940000
O       22.86320000      17.98200000      13.49880000
O       23.12250000      17.01430000      10.83720000
O       26.18850000      18.00820000      13.93900000
O       27.10590000      13.31920000      15.37350000
O       28.56620000      17.26790000      15.44980000
O       20.25220000      19.35660000       7.64158000
O       22.45210000      10.10830000      17.80730000
O       25.80730000      11.60040000      17.15170000
O       28.55140000      16.60350000      22.77260000
O       22.32540000      13.94850000      18.63630000
O       23.82210000      11.27030000      15.26560000
O       26.55600000      15.68900000      16.42280000
O       27.40440000      11.03820000      21.66410000
O       29.14920000      14.21660000      19.56550000
O       24.29570000      13.40440000      23.80640000
O       20.34830000      13.12990000      23.50420000
O       22.06850000      15.98040000      16.81070000
O       24.18450000      16.05870000      15.12640000
O       24.53950000      18.28620000      18.75580000
O       29.40890000      17.66450000      17.96810000
O       22.14980000       9.60703000      21.47370000
O       31.18940000      16.29850000      19.41660000
O       24.86140000      10.24510000      20.97930000
O       20.83830000      11.50780000      19.83880000
O       22.16830000      15.06430000      24.05990000
O       24.47770000      12.50530000      19.43070000
O       25.30370000      14.27850000      21.39400000
O       28.34440000      11.63630000      18.94640000
O       28.01520000      13.92510000      22.01260000
O       30.43990000      18.28930000      21.46390000
O       20.89120000      16.77320000      20.33140000
O       23.56470000      15.96060000      20.02930000
O       26.60550000      17.66020000      21.24600000
O       27.28340000      16.27240000      18.89820000
O       24.86320000      19.27690000      16.15150000
O       26.12700000      20.38080000      25.62870000
O       22.40360000      11.53330000      24.57830000
O       20.82620000      14.92850000      26.46900000
O       24.99330000      13.88830000      26.48180000
O       21.34650000      19.76210000      25.52110000
O       24.97960000      18.05000000      26.41690000
O       28.92690000      17.19330000      25.36840000
O       20.10840000      12.26730000      27.29490000
O       21.08270000      13.62080000      29.69450000
O       23.72510000      11.37460000      26.99850000
O       18.80530000      16.55610000      25.48550000
O       26.78170000      16.05820000      26.87730000
O       21.94880000      18.73310000      28.12850000
O       23.07700000      15.02310000      28.21410000
O       24.32410000      17.38680000      29.01480000
O       22.78550000      17.63340000      24.59980000
O       23.80910000      20.95930000      27.55950000
O       28.19850000      19.75560000      28.69760000
O       23.01300000      21.03030000      10.00080000
O       23.98100000      28.33950000      12.33850000
O       21.31430000      20.49550000      12.26030000
O       25.30490000      22.84460000       9.92416000
O       20.60560000      26.55140000      11.33990000
O       21.16630000      23.92660000      10.72710000
O       19.91800000      18.20220000      11.84970000
O       22.45540000      23.33320000      14.71780000
O       24.27330000      20.45650000      13.08680000
O       25.77680000      24.28680000      12.31790000
O       26.20380000      22.11950000      13.92870000
O       28.51990000      21.01720000      12.83630000
O       30.90770000      23.80520000      16.25150000
O       25.72230000      26.62180000      13.90900000
O       21.92330000      27.48980000      13.78570000
O       23.25470000      23.07340000      12.25500000
O       23.52230000      25.68650000      15.10050000
O       28.99940000      25.37240000      17.48220000
O       25.26420000      30.40580000      23.79970000
O       22.91170000      21.22560000      16.31260000
O       19.98180000      27.25560000      22.85060000
O       24.47920000      22.61670000      18.10270000
O       26.93150000      21.10890000      16.38410000
O       28.65740000      22.78640000      25.34420000
O       27.33750000      21.66410000      19.07630000
O       31.08660000      21.05620000      16.91770000
O       22.82720000      24.27530000      23.55040000
O       30.96790000      19.91700000      23.90160000
O       23.05210000      26.27590000      17.66700000
O       26.30340000      24.70160000      17.92750000
O       24.14710000      18.28550000      22.43320000
O       29.42290000      26.41710000      19.91980000
O       27.41620000      27.65470000      20.58910000
O       27.29320000      28.94830000      22.93100000
O       22.71020000      28.88080000      16.41430000
O       23.72230000      26.58820000      20.32970000
O       26.66720000      27.10390000      16.52110000
O       20.81640000      18.22090000      17.87630000
O       23.02800000      30.77130000      22.27740000
O       22.71030000      21.64430000      22.06840000
O       22.83680000      19.48870000      20.39060000
O       25.03230000      20.76220000      23.19980000
O       27.01400000      20.34990000      21.47480000
O       29.04210000      21.77750000      22.72830000
O       29.69750000      20.10500000      19.22730000
O       29.25750000      24.42040000      21.79850000
O       21.50010000      25.44460000      21.35420000
O       22.32340000      23.18270000      19.76570000
O       25.09530000      25.18860000      22.21760000
O       26.88980000      23.95500000      20.50890000
O       28.97990000      25.47030000      24.24220000
O       22.46560000      22.34170000      25.54770000
O       26.31520000      22.87040000      26.88750000
O       29.05170000      20.11410000      26.05810000
O       21.32390000      26.11690000      24.97380000
O       24.73250000      27.11240000      26.34900000
O       20.36790000      21.32740000      27.75830000
O       19.11240000      26.66500000      30.34890000
O       21.26640000      22.07400000      30.16250000
O       23.99010000      19.24390000      31.03170000
O       24.18790000      22.19510000      29.88900000
O       22.43360000      28.45690000      25.96090000
O       21.46300000      24.37490000      27.20080000
O       20.93070000      27.30660000      28.21050000
O       24.24690000      24.53100000      27.85650000
O       27.03600000      22.26330000      29.45700000
O       26.40190000      26.55010000      24.18030000
O       21.07050000      19.26720000      30.75880000
O       23.06300000      27.17870000       9.92859000
O       20.19950000      32.27780000      18.94190000
O       23.70240000      29.26590000      20.05040000
O       21.44720000      29.77880000      18.61150000
O       26.16020000      28.81950000      18.76440000
O       20.96380000      29.66750000      23.83030000
O       21.96560000      32.97470000      21.00510000
H       17.37470000       9.04205000      14.28870000
H       20.30800000       8.03500000      16.65600000
H       16.29230000       7.63784000      21.23190000
H       16.08110000       8.21449000      19.78600000
H       15.91860000       7.04198000      17.76690000
H       19.42460000       8.38349000      18.69680000
H       15.00270000       9.72877000      21.74580000
H       19.41260000       8.94434000      20.75640000
H       18.68960000       9.26458000      26.20270000
H       20.50370000       9.17837000      24.63390000
H       17.73640000      13.61210000      11.66690000
H       17.86370000      14.80250000      10.55570000
H       15.21690000      17.22280000      11.70190000
H       13.82420000      17.89610000      11.81270000
H       17.75650000      18.04250000       9.11213000
H       16.59090000      19.00150000       8.68625000
H       17.89160000      10.24570000      15.14510000
H       17.43470000      17.80260000      15.15280000
H       14.84500000      15.61270000      13.87580000
H       13.64450000      14.59760000      14.03030000
H       17.91940000      12.65900000      13.79250000
H       17.47060000      11.33130000      13.16920000
H       18.17130000      12.57350000      16.02770000
H       17.07170000      13.69780000      15.88570000
H       10.94100000      17.84700000      14.27910000
H       11.04780000      17.43210000      15.76330000
H       12.89370000      18.58210000      13.54940000
H       12.99250000      17.00680000      13.66260000
H       14.50000000      19.99540000      13.82030000
H       13.47810000      20.24060000      15.01010000
H       16.56910000      15.49360000      12.34130000
H       16.70140000      16.70880000      13.33440000
H       18.65310000      17.95610000      14.16230000
H       11.50570000      11.66820000      18.03470000
H       15.73850000       9.96010000      15.90570000
H       12.83010000      15.96590000      15.99750000
H       14.69230000      18.72710000       9.83102000
H       12.95200000      21.44640000      13.02080000
H       16.72180000      19.07110000      13.50440000
H       15.69290000      19.22050000      12.32470000
H        9.98519000      19.44420000      15.50420000
H       19.25860000      16.28570000       9.21007000
H       19.79790000      11.43610000      12.72730000
H       19.26550000      15.22360000      12.24240000
H       19.28860000      19.35200000       7.82292000
H       17.10390000      16.39720000      22.94250000
H       16.31170000      15.06460000      22.81400000
H       15.82740000       8.62030000      17.55210000
H       11.74050000      17.94310000      25.30800000
H       18.11290000       8.17404000      17.82510000
H       11.45810000      15.35750000      17.84870000
H       10.49680000      15.09610000      19.09470000
H       11.64370000      13.16380000      18.53510000
H       13.78710000      12.18790000      18.28250000
H       15.21220000      12.26440000      18.97930000
H       16.37290000      10.83900000      23.55210000
H       15.08030000      10.64900000      17.18140000
H       17.95610000      15.43200000      18.72590000
H       16.59570000      15.24290000      17.90610000
H       11.34290000      18.83620000      20.43650000
H       12.60420000      18.00000000      20.20950000
H       13.21980000      12.33290000      24.31890000
H       13.02370000      17.05910000      17.08820000
H       15.23650000      17.94830000      17.15180000
H       14.58960000      17.98080000      18.55870000
H       15.22340000      13.52660000      17.15080000
H       15.04190000      14.64510000      16.01270000
H       17.27960000      18.77550000      17.01960000
H       17.17590000      17.20960000      17.37560000
H       19.26470000      18.84560000      22.44190000
H       13.94660000      10.89830000      21.97510000
H       18.11180000      10.59980000      22.13660000
H       17.46860000       9.75571000      20.99390000
H       11.99270000      14.94330000      21.86470000
H       11.67210000      14.05450000      23.09040000
H       12.11210000      12.49260000      21.67600000
H       12.30160000      11.68030000      20.37960000
H       15.12760000      13.67490000      21.62630000
H       14.27810000      13.84380000      22.97480000
H       16.90700000      12.65340000      20.78230000
H       15.70050000      11.70610000      21.14290000
H       18.10820000      14.27810000      21.92270000
H       19.17740000      13.13500000      21.97310000
H        9.94548000      15.02360000      21.40370000
H        8.52948000      15.17310000      20.74610000
H       12.41480000      19.10920000      23.46720000
H       11.32450000      18.13410000      22.93140000
H       13.88340000      15.67470000      21.93000000
H       13.05240000      16.98820000      22.34020000
H       16.03180000      17.90290000      21.63820000
H       15.71940000      18.26890000      23.17520000
H       16.00070000      16.72980000      19.60840000
H       14.66070000      16.87770000      20.47240000
H       17.76340000      19.21020000      22.43320000
H       14.51900000      20.96810000      16.56590000
H       13.88940000      19.62580000      17.12730000
H       16.42080000      22.04370000      15.09800000
H       17.55140000      20.61880000      24.60620000
H        9.62484000      17.32490000      21.43740000
H       13.17510000      20.46880000      20.00820000
H       17.91060000      20.50320000      18.27320000
H       19.07530000      10.17390000      17.01650000
H       19.54090000      16.90740000      23.67470000
H       19.34310000      14.44170000      15.48750000
H       19.59730000      13.20920000      24.14610000
H       19.88910000      11.34250000      19.99600000
H       20.00160000      15.43140000      19.55890000
H       20.30380000      19.33250000      14.96230000
H       20.90420000      19.19060000      17.99840000
H       18.51090000      18.44510000      29.36320000
H       18.75860000      16.98470000      29.97540000
H       18.41680000      10.18130000      24.96070000
H       14.87790000      15.10440000      26.25060000
H       13.47050000      14.93450000      26.91840000
H       17.84050000      13.64410000      25.81550000
H       17.66990000      14.31140000      24.38650000
H       10.95960000      20.51580000      24.99000000
H       10.27150000      19.51190000      25.92060000
H       15.76070000      19.58130000      24.89070000
H       14.48510000      18.98770000      25.54880000
H       19.60510000      19.57950000      25.49190000
H       18.69640000      18.30990000      25.49600000
H       14.85550000      12.03500000      28.52020000
H       14.80830000      13.05380000      27.31810000
H       17.96160000      14.20070000      28.34760000
H       16.89630000      13.10870000      27.83550000
H       13.28310000      16.59450000      28.31500000
H       12.00840000      15.74170000      28.69530000
H       15.14560000      17.75210000      29.41750000
H       14.44430000      18.39030000      28.15960000
H       15.82450000      16.77330000      27.19380000
H       15.81740000      17.23600000      25.71170000
H       11.66370000      17.32340000      26.76820000
H       17.37160000      11.91200000      24.16300000
H       13.50530000      13.71310000      25.04350000
H       13.32720000      21.37170000      23.16540000
H        9.01054000      20.10350000      24.00940000
H       16.99580000      18.23230000      30.69110000
H       12.76260000      19.28570000      26.98500000
H       18.21800000      19.50100000      27.20330000
H       20.01240000      11.47340000      26.73050000
H       19.17300000      12.56240000      27.46980000
H       17.89900000      16.34720000      25.81470000
H       19.58940000      21.08580000      22.73450000
H       14.15180000      18.93220000       8.36130000
H       14.17620000      21.04270000       9.63308000
H       14.64850000      22.41290000      10.22870000
H       18.35110000      28.70650000      14.90840000
H       15.46700000      28.14720000      12.59380000
H       17.82140000      20.57750000       9.55801000
H       17.21500000      22.02690000       9.82705000
H       17.28210000      25.39580000      11.21870000
H       17.23850000      26.87480000      11.82350000
H       10.99280000      22.46380000      13.32430000
H       10.07490000      21.83880000      14.45040000
H       12.91400000      21.99550000      11.54390000
H       16.83080000      28.66960000      13.14090000
H       13.36740000      23.84210000      16.16360000
H       14.75760000      24.61710000      16.00490000
H       18.09890000      25.44760000      13.28610000
H       17.94480000      22.30450000      13.13920000
H       16.70450000      21.32900000      13.13680000
H       14.36240000      24.67920000      13.59210000
H       13.38730000      23.82620000      12.71600000
H       14.57840000      26.95750000      14.18670000
H       13.39450000      26.85770000      13.24020000
H       16.38720000      23.17520000      11.90160000
H       15.27340000      24.14370000      11.50300000
H       18.66570000      26.04900000      14.61930000
H       15.50740000      22.69580000      16.20990000
H       16.55930000      25.53920000      14.77590000
H       13.21700000      28.02930000      15.55640000
H       16.39210000      28.73790000      17.29080000
H       19.61810000      26.51100000      11.38210000
H       19.66260000      22.00070000       8.90421000
H       20.05640000      18.00390000      10.89370000
H       18.89420000      21.95310000      11.31090000
H       19.27280000      24.02140000      14.98690000
H       16.98320000      28.75350000      22.59050000
H        8.72721000      20.30920000      15.90030000
H       12.20190000      21.21930000      17.47890000
H       10.67490000      21.12080000      17.10880000
H       11.64650000      26.89370000      23.57540000
H       15.16520000      23.10570000      26.06230000
H       14.03190000      23.88690000      18.25330000
H       13.65740000      22.91360000      19.45070000
H       13.15730000      24.75420000      22.98280000
H       19.39160000      20.63350000      16.51670000
H       19.99570000      21.78770000      15.66550000
H       11.18400000      25.38320000      16.82740000
H       11.64970000      26.87120000      17.03140000
H       11.46830000      23.08940000      16.67550000
H       11.17020000      23.52630000      15.20970000
H       15.79080000      26.43450000      18.13820000
H       14.67220000      27.30070000      17.37090000
H       15.75950000      26.31430000      15.91280000
H       11.75830000      21.57010000      23.11910000
H       19.87590000      25.61700000      18.27790000
H       20.19060000      24.85670000      16.90200000
H       16.02380000      30.92450000      21.90470000
H       13.05750000      28.92820000      16.84790000
H       16.17160000      24.47680000      19.44080000
H       14.88120000      29.96820000      18.00920000
H       16.00350000      25.78290000      20.22720000
H       17.08500000      30.08930000      17.77500000
H       18.35270000      29.94760000      19.58670000
H        9.30386000      18.76350000      22.08490000
H       14.20210000      29.73440000      23.01140000
H        9.59492000      21.72600000      22.58800000
H       10.38460000      22.55150000      21.51650000
H       14.08350000      21.33720000      20.96150000
H       15.56480000      21.71550000      23.24480000
H       14.64910000      23.01220000      22.95780000
H       12.90050000      27.31160000      20.10810000
H       17.17380000      20.97590000      16.93170000
H       18.37720000      20.32180000      20.66030000
H       17.71630000      21.67820000      20.14870000
H       10.80260000      23.81620000      19.82460000
H       10.79280000      22.38200000      19.19850000
H       11.56960000      25.40060000      21.47910000
H       10.90160000      24.48860000      22.59040000
H       12.69140000      24.96100000      19.59100000
H       11.52840000      25.85520000      18.96320000
H       16.08950000      26.88860000      22.20070000
H       14.97010000      25.74370000      22.26850000
H       17.38960000      23.45060000      21.25270000
H       16.04210000      22.64340000      21.21360000
H       18.04420000      25.62430000      19.57660000
H       19.21600000      25.25470000      20.54890000
H       14.29180000      27.44470000      20.77270000
H       19.00240000      27.39190000      22.77660000
H       19.88880000      26.94790000      16.17180000
H       19.17690000      27.67710000      19.97960000
H       19.96490000      20.98520000      19.36830000
H        9.60784000      22.23790000      25.60880000
H        9.80869000      23.18580000      24.40550000
H       13.12180000      21.98680000      25.21460000
H       12.83430000      22.86050000      26.48900000
H       18.92160000      23.36630000      25.43300000
H       19.67400000      22.21600000      24.69790000
H       12.91330000      25.37490000      26.14450000
H       12.96730000      26.59520000      25.15740000
H       18.30770000      25.63990000      25.46710000
H       17.20670000      24.53690000      25.20690000
H       17.67200000      28.13990000      26.01840000
H       15.80110000      18.26780000      31.73220000
H       14.50190000      26.95170000      26.78910000
H       13.53400000      20.66520000      26.84760000
H       15.82440000      20.17210000      29.92820000
H       15.02720000      20.66540000      28.68120000
H       15.57130000      28.09680000      26.74900000
H       17.30860000      20.08750000      28.40490000
H       19.54880000      24.91230000      29.80330000
H       20.17230000      23.43610000      29.84730000
H       11.34030000      24.37690000      27.71760000
H       10.86800000      23.88570000      26.28570000
H       16.61770000      22.64080000      29.07000000
H       17.95210000      23.49930000      28.91010000
H       16.69650000      25.33570000      28.88640000
H       16.11460000      26.75670000      28.40780000
H       17.08440000      27.97010000      23.89940000
H       12.42550000      28.25810000      23.77810000
H       16.43510000      23.33480000      26.98010000
H       14.05900000      24.98930000      24.22990000
H       16.69640000      21.82830000      25.12580000
H        7.60380000      20.27720000      23.32700000
H       18.40170000      24.54300000      23.09260000
H       19.61350000      20.77070000      28.07040000
H       20.91090000      20.23850000      30.74020000
H       20.76050000      24.14020000      27.86060000
H       17.98790000      26.62230000      27.55660000
H       18.95940000      26.91030000      31.27790000
H       17.16390000      29.59850000      15.38290000
H       19.31370000      31.80750000      19.04640000
H       14.90660000      31.13120000      19.69410000
H       15.25310000      32.57210000      20.23060000
H       16.91010000      30.84620000      23.22260000
H       13.94960000      29.30800000      19.12020000
H       17.21180000      31.10610000      19.67320000
H       13.31670000      29.07590000      21.91000000
H       18.76360000      31.70520000      24.98990000
H       17.44760000      29.54370000      25.33730000
H       21.76800000       8.79813000      14.49120000
H       21.73000000       8.18938000      24.61470000
H       21.59400000       7.16153000      16.40760000
H       20.88440000       8.54750000      20.51430000
H       23.98410000       9.36493000      18.30790000
H       25.48090000       9.61831000      18.02860000
H       21.96760000       9.43145000      17.28940000
H       25.04230000      11.38190000      16.54560000
H       23.12800000       9.73929000      21.40700000
H       24.97820000       9.64182000      20.18460000
H       22.73630000      11.49730000      25.51500000
H       18.18860000      15.69640000       8.23506000
H       21.13240000      14.31460000      11.63110000
H       21.40560000      12.77010000      11.62680000
H       29.02840000      19.07510000      15.18850000
H       29.05460000      20.38370000      14.28290000
H       21.61190000      17.08020000       9.71386000
H       20.77220000      17.98520000       8.68649000
H       25.49890000      19.05210000      10.14140000
H       24.21990000      18.18620000       9.96513000
H       27.54850000      18.23510000      11.08940000
H       22.85540000       9.86367000      14.18570000
H       21.13980000      10.53630000      12.92940000
H       26.60690000      18.62570000      12.26270000
H       21.11350000      11.94320000      14.41180000
H       20.97480000      13.12660000      15.40430000
H       24.58310000      14.02290000      10.52220000
H       23.15590000      13.99350000      11.22310000
H       24.57900000      13.79940000      12.92190000
H       25.60750000      13.50480000      14.12110000
H       20.20320000      15.28890000      13.51320000
H       23.32070000      17.30900000      14.05520000
H       21.96500000      18.08210000      13.90180000
H       22.92460000      17.35280000      11.74960000
H       23.52410000      16.12290000      10.97070000
H       27.03560000      17.91010000      14.43600000
H       25.71340000      17.16220000      14.06170000
H       24.06290000      12.01400000      14.66130000
H       20.69230000      15.29720000      15.84930000
H       24.23750000      15.16110000      14.69420000
H       23.58960000      20.25440000       9.74633000
H       20.11260000      17.32300000      12.25940000
H       23.74600000      19.64280000      13.26670000
H       23.65880000      21.08530000      12.66070000
H       28.14740000      20.35030000      12.21620000
H       25.11120000      18.82750000      15.31140000
H       27.78860000      20.72010000      16.06250000
H       31.96050000      20.71140000      16.65890000
H       21.80780000      10.50800000      18.43420000
H       28.48640000      15.62370000      22.69290000
H       26.37550000      12.15940000      16.56410000
H       23.30400000      17.84730000      23.76290000
H       22.55400000      16.67090000      24.49460000
H       19.88100000      11.24240000      16.13090000
H       23.01740000      13.25990000      18.82780000
H       21.47890000      13.56970000      18.95230000
H       22.94440000      11.55250000      15.62860000
H       26.46540000      10.72240000      21.50810000
H       25.64300000      15.92890000      16.10990000
H       26.63290000      15.91670000      17.39680000
H       28.06550000      13.23690000      15.24190000
H       26.96940000      14.20680000      15.83290000
H       28.94280000      13.32770000      19.17190000
H       28.44620000      14.83200000      19.24240000
H       24.68560000      13.55970000      24.70650000
H       22.15120000      15.25780000      17.48840000
H       21.81430000      16.81300000      17.27960000
H       30.67380000      15.47620000      19.57810000
H       23.41370000      16.01690000      15.76910000
H       24.29460000      17.35920000      18.98500000
H       24.61690000      18.37650000      17.77670000
H       31.14330000      16.83440000      20.23940000
H       29.00110000      17.41090000      16.33730000
H       27.85070000      16.62560000      15.70060000
H       29.47940000      18.58890000      18.31830000
H       30.14940000      17.15290000      18.41940000
H       21.94800000       9.34803000      22.39670000
H       29.76490000      17.68830000      21.87390000
H       24.62790000      11.09070000      20.50590000
H       21.29020000      11.00090000      20.55690000
H       30.84380000      18.73190000      22.23920000
H       22.98660000      14.50970000      23.92570000
H       21.44550000      14.54390000      23.62280000
H       24.90210000      13.18290000      20.02050000
H       25.06900000      12.33060000      18.65380000
H       24.94590000      13.93350000      22.25450000
H       26.28310000      14.32260000      21.54350000
H       28.07770000      11.35050000      19.85030000
H       27.57130000      11.44180000      18.38220000
H       28.51820000      13.96710000      21.14830000
H       27.87130000      12.96690000      22.16630000
H       19.16280000      14.17390000      19.93910000
H       28.00450000      16.89640000      18.59280000
H       21.86440000      16.59830000      20.39300000
H       20.58200000      16.92840000      21.25610000
H       24.22750000      15.53830000      20.63180000
H       23.15420000      15.19060000      19.55410000
H       27.22490000      17.23500000      21.90520000
H       25.70270000      17.66560000      21.64650000
H       26.85420000      16.73800000      19.65980000
H       20.36520000      18.02150000      15.76320000
H       30.44280000      20.63370000      16.27150000
H       31.84630000      20.23630000      24.17260000
H       20.71200000      17.86800000      18.79380000
H       23.44730000      19.14530000      19.67180000
H       26.93030000      19.35790000      21.36460000
H       30.44540000      20.47120000      18.70370000
H       18.43520000      14.85500000      30.61760000
H       22.20400000      10.59320000      24.36110000
H       20.60580000      13.98490000      26.66330000
H       21.34980000      14.89510000      25.62430000
H       24.31000000      14.32340000      27.05810000
H       25.77560000      14.48290000      26.57670000
H       21.39230000      19.65460000      26.49840000
H       21.84500000      18.97280000      25.17330000
H       25.34580000      18.94540000      26.15800000
H       24.20530000      17.88900000      25.82120000
H       28.92420000      18.14660000      25.58240000
H       28.26740000      16.77420000      25.96800000
H       26.10930000      16.75960000      26.62240000
H       26.83020000      16.12720000      27.84760000
H       20.88040000      12.96570000      28.99190000
H       21.87970000      14.09720000      29.35510000
H       23.27510000      11.48180000      27.85370000
H       24.36610000      12.12170000      26.94290000
H       19.43420000      15.97060000      25.98010000
H       22.63630000      18.07150000      28.36240000
H       21.53750000      18.95760000      29.00010000
H       22.30700000      15.26070000      27.64400000
H       23.45030000      15.86570000      28.58010000
H       24.29840000      18.07280000      29.73780000
H       24.65090000      17.82420000      28.19080000
H       28.65670000      16.80470000      23.74960000
H       20.92240000      17.57820000      23.47310000
H       27.85230000      10.29800000      22.10720000
H       23.76690000      12.57140000      23.89460000
H       20.99090000      12.49350000      23.91010000
H       25.76890000      20.56890000      24.71420000
H       24.48300000      19.17740000      22.73980000
H       19.97760000      21.83440000      26.99460000
H       23.01950000      19.15680000      31.16060000
H       23.19180000      20.20840000      27.71570000
H       20.19410000      18.81600000      30.77270000
H       27.49550000      19.09280000      28.81380000
H       19.71360000      14.64920000      29.74590000
H       20.53380000      20.28380000       7.78528000
H       23.82790000      27.92950000      11.45130000
H       24.70140000      27.81750000      12.76700000
H       20.89620000      19.59700000      12.15220000
H       21.86140000      20.63110000      11.44910000
H       22.13430000      27.02940000      10.21880000
H       23.40410000      26.29620000       9.70162000
H       22.36130000      21.17270000       9.28633000
H       24.46800000      22.34010000      10.07350000
H       25.85010000      22.25850000       9.37334000
H       20.92290000      26.85060000      12.22520000
H       20.89880000      22.89420000       9.12477000
H       20.46760000      23.44100000      11.24760000
H       20.98030000      24.88720000      10.90900000
H       25.91230000      23.90630000      11.41930000
H       26.04090000      23.56680000      12.95150000
H       22.69820000      23.16400000      13.75080000
H       22.72700000      22.51770000      15.22210000
H       24.90840000      26.22520000      14.34060000
H       26.42170000      21.97340000      14.88190000
H       25.48840000      21.45950000      13.70190000
H       25.99340000      25.90690000      13.28640000
H       27.71060000      21.49670000      13.15920000
H       30.98720000      22.84800000      16.48790000
H       30.78270000      23.82060000      15.28710000
H       20.09890000      21.59580000      12.25540000
H       22.57500000      23.41150000      11.61010000
H       22.43600000      26.75930000      14.23190000
H       22.64050000      27.93720000      13.23090000
H       24.03720000      23.67680000      12.22720000
H       23.19170000      24.74180000      14.97220000
H       29.68650000      24.80180000      17.04470000
H       20.43050000      27.53470000      14.79710000
H       22.42080000      28.65590000      15.50700000
H       26.43030000      27.02950000      15.55990000
H       25.92270000      26.06340000      23.44960000
H       24.45430000      30.61710000      23.25520000
H       23.45700000      20.43350000      16.06670000
H       21.96000000      20.95630000      16.35600000
H       27.75540000      22.92120000      25.72710000
H       25.61960000      19.90730000      16.30260000
H       23.93190000      22.08770000      17.46060000
H       25.11780000      21.99130000      18.49320000
H       27.09770000      21.44050000      17.29940000
H       28.25740000      21.30460000      19.14680000
H       27.30400000      22.54680000      19.53790000
H       23.70820000      24.54400000      23.17810000
H       19.21660000      23.36870000      22.43920000
H       20.80650000      23.58990000      15.13640000
H       23.38560000      26.30160000      18.60070000
H       22.09550000      25.99740000      17.70600000
H       27.09080000      20.20950000      25.54140000
H       23.52310000      18.52440000      21.69870000
H       23.51780000      25.82920000      16.08490000
H       25.60900000      24.01790000      17.77100000
H       26.08640000      25.49340000      17.38300000
H       28.18090000      24.82830000      17.53880000
H       21.02680000      21.78150000      22.70830000
H       29.34570000      26.01270000      19.00200000
H       29.57340000      25.67030000      20.55390000
H       28.34610000      27.12960000      20.28430000
H       27.48010000      28.22600000      21.40720000
H       26.53100000      29.55730000      23.20810000
H       21.74890000      29.54350000      17.69190000
H       22.94650000      28.01070000      16.81260000
H       22.85390000      26.30110000      20.73180000
H       23.70420000      27.59020000      20.33710000
H       26.12470000      28.34980000      17.90030000
H       27.60920000      26.83960000      16.57310000
H       22.26760000      30.37340000      22.77880000
H       20.10940000      28.86490000      19.50400000
H       22.80290000      20.83040000      21.50220000
H       22.67120000      22.36480000      21.38900000
H       22.02250000      19.82590000      19.93260000
H       29.18380000      24.85190000      22.70880000
H       25.74280000      20.79930000      22.49550000
H       24.26910000      21.32060000      22.89740000
H       26.97090000      20.72470000      20.55950000
H       29.38790000      23.46240000      21.99840000
H       29.77800000      21.17770000      22.98300000
H       28.37670000      21.21490000      22.25000000
H       30.04260000      19.69010000      20.05320000
H       29.00910000      24.67440000      24.81830000
H       28.05160000      25.80830000      24.33210000
H       21.34880000      21.72390000      19.21500000
H       21.86960000      24.93300000      22.11770000
H       20.88790000      26.10740000      21.76790000
H       22.02110000      24.09580000      19.94220000
H       23.12620000      23.20380000      19.18790000
H       25.72500000      24.62730000      21.69300000
H       24.68660000      25.78480000      21.52750000
H       27.73590000      24.24960000      20.95110000
H       26.73390000      24.53220000      19.72260000
H       21.98630000      21.51800000      25.29520000
H       22.67260000      22.83730000      24.71680000
H       25.98130000      21.99310000      26.56330000
H       25.52210000      23.45120000      26.99040000
H       29.04280000      21.09940000      25.92050000
H       28.88020000      19.99300000      27.02950000
H       21.14980000      25.56950000      25.77430000
H       21.72110000      26.96240000      25.31770000
H       25.34300000      26.87760000      25.60160000
H       24.71300000      26.33380000      26.94270000
H       18.21290000      26.65970000      29.90880000
H       21.48310000      29.33270000      24.60170000
H       20.63700000      28.83980000      23.37880000
H       24.12660000      20.19430000      30.83580000
H       22.23290000      22.22730000      30.25860000
H       21.11480000      21.81690000      29.20540000
H       23.39710000      21.49750000      26.83870000
H       21.99520000      28.43310000      26.83590000
H       25.15910000      22.22280000      30.03610000
H       24.08690000      21.74400000      28.99600000
H       23.33780000      28.04040000      26.09940000
H       27.82630000      20.58340000      29.08860000
H       19.45390000      27.04750000      27.15600000
H       21.59020000      23.56920000      26.63570000
H       21.39110000      26.44630000      28.16690000
H       20.44390000      27.29190000      29.06670000
H       24.32330000      24.07880000      28.72300000
H       23.28580000      24.45500000      27.64000000
H       27.67130000      22.91480000      29.79990000
H       26.82930000      22.55360000      28.51960000
H       26.68150000      27.40520000      23.77670000
H       24.93160000      30.12450000      24.66860000
H       20.14830000      26.73800000      23.67340000
H       28.55980000      22.51430000      24.39770000
H       22.50070000      25.01800000      24.11960000
H       30.45140000      19.83230000      24.73840000
H       20.08360000      32.89550000      18.19940000
H       19.43520000      30.50190000      24.24390000
H       22.89740000      29.49600000      19.50380000
H       25.24560000      29.05540000      19.05890000
H       28.08650000      29.29860000      23.37370000
H       21.12640000      30.70950000      18.59470000
H       26.90750000      28.15590000      19.80780000
H       23.56580000      29.79880000      20.88000000
H       21.62990000      33.71400000      21.53800000
H       22.66860000      31.60710000      21.87620000
H       21.27360000      32.78490000      20.32520000
