# LAMMPS data file written by OVITO Basic 3.10.6

3418 atoms
2 atom types

0.0 60.0 xlo xhi
0.0 60.0 ylo yhi
0.0 60.0 zlo zhi

Masses

1 15.9994  # O
2 1.00794  # H

Atoms  # atomic

1 1 27.1695 17.0826 18.7237
2 1 22.8582 15.624 23.3171
3 1 26.6473 15.7401 22.4869
4 1 25.0464 13.7314 23.301
5 1 28.1942 12.9436 23.4221
6 1 31.0638 13.8028 23.301
7 1 25.5808 14.9809 32.5339
8 1 23.2515 12.8392 27.6074
9 1 28.3597 12.4556 26.577
10 1 18.7508 15.7812 26.2045
11 1 21.4767 14.7272 25.8907
12 1 25.5512 13.317 26.0227
13 1 23.6146 13.5301 31.5553
14 1 24.7813 11.5866 29.8278
15 1 29.4121 13.4945 30.3471
16 1 18.2753 15.8762 30.7813
17 1 22.9945 14.9632 29.3724
18 1 27.0872 12.9002 29.0944
19 1 22.4553 15.3761 33.5199
20 1 19.8817 15.0339 35.6573
21 1 30.9791 11.2923 27.0118
22 1 29.6796 14.679 25.6769
23 1 30.9952 11.4172 29.9407
24 1 30.4884 15.8345 29.5782
25 1 29.6842 14.7929 32.7528
26 1 21.307 16.0891 38.0285
27 1 26.1607 15.1963 36.9661
28 1 25.5695 14.551 40.5925
29 1 26.1921 13.5002 34.8814
30 1 28.9842 12.8988 34.5077
31 1 28.4117 14.1302 40.7661
32 1 24.4668 29.2758 11.2221
33 1 31.431 25.1452 11.6472
34 1 28.3492 30.8037 10.9795
35 1 25.2222 23.0764 13.9213
36 1 29.1469 25.059 13.0076
37 1 24.5151 26.5028 12.3792
38 1 26.8115 28.6605 10.1474
39 1 27.631 24.9806 22.0126
40 1 28.3404 16.0865 16.3078
41 1 21.5574 21.4786 17.1742
42 1 24.4513 19.0537 16.0732
43 1 29.1231 18.6749 15.6911
44 1 30.3391 21.1891 17.9423
45 1 18.5773 24.6738 16.9591
46 1 23.0993 21.1856 14.8889
47 1 23.9714 25.8833 17.5112
48 1 28.0261 22.9032 14.3503
49 1 29.1104 23.3721 16.818
50 1 16.783 29.6115 16.7481
51 1 20.8469 25.0235 14.9595
52 1 20.2394 27.6357 15.6722
53 1 23.6673 25.1614 14.7924
54 1 25.1341 28.1 15.7254
55 1 27.2234 26.781 12.2519
56 1 27.6301 28.3071 14.5034
57 1 22.6233 17.7885 20.969
58 1 25.3485 17.5702 20.9459
59 1 28.6018 15.5519 20.4907
60 1 18.0518 19.378 20.222
61 1 20.031 21.4588 20.4771
62 1 23.0047 19.6385 18.5353
63 1 24.5468 21.6607 19.5101
64 1 26.9965 19.6627 17.2232
65 1 28.5444 20.0042 21.2907
66 1 16.4003 23.5597 20.5523
67 1 18.9572 23.7657 19.5277
68 1 21.2942 24.4556 20.7812
69 1 22.902 23.6973 18.6263
70 1 24.9306 24.7233 21.3547
71 1 27.2469 21.5196 19.3145
72 1 28.4519 23.997 19.4987
73 1 16.0644 27.6823 20.1177
74 1 15.5482 30.3902 20.6008
75 1 17.7446 27.1609 17.5984
76 1 19.7159 28.1838 19.2455
77 1 22.0368 27.8463 17.8065
78 1 25.3078 28.7593 20.2488
79 1 26.0705 26.3609 19.2158
80 1 28.755 27.5562 19.0888
81 1 18.3888 18.1992 22.813
82 1 22.9003 19.748 22.8314
83 1 26.5145 19.1244 23.0066
84 1 15.8836 20.7766 21.4474
85 1 20.1569 23.0798 22.8855
86 1 24.2912 22.0419 22.1891
87 1 28.325 23.0367 23.9616
88 1 16.0081 25.7956 22.5215
89 1 18.8588 28.7183 21.7526
90 1 22.7157 26.3512 22.1609
91 1 20.1216 17.8289 25.079
92 1 27.7491 16.5866 24.9152
93 1 29.3477 18.6205 23.8253
94 1 23.411 26.1114 24.8018
95 1 27.901 24.8908 25.9982
96 1 14.4121 29.4641 24.8764
97 1 16.3904 28.5387 23.224
98 1 20.6504 29.6774 25.1226
99 1 24.011 28.6946 24.4208
100 1 26.6513 29.2934 24.3717
101 1 14.6896 31.3261 18.0231
102 1 14.9047 31.8146 22.882
103 1 30.9098 22.8984 19.9895
104 1 31.1136 21.044 21.9969
105 1 28.3451 28.7888 36.1044
106 1 24.387 17.9007 24.4092
107 1 16.581 19.7552 23.971
108 1 26.2459 26.5946 32.1646
109 1 21.2383 21.1877 24.4547
110 1 25.9736 21.3929 24.3583
111 1 24.0129 29.3886 35.4166
112 1 14.4232 24.7425 24.8038
113 1 17.8066 24.2275 23.8064
114 1 20.2422 27.179 23.5036
115 1 23.0378 26.8176 34.9617
116 1 17.9157 25.9035 34.0807
117 1 17.3925 28.5217 34.9024
118 1 14.0029 25.9756 34.8061
119 1 17.6304 17.4742 28.3063
120 1 20.8195 16.6918 29.4536
121 1 25.749 15.1725 28.0898
122 1 28.4139 17.4775 29.5969
123 1 15.6805 18.4387 26.3966
124 1 15.3027 20.4646 28.4175
125 1 18.9508 20.2797 25.6671
126 1 20.4611 21.4251 28.3037
127 1 21.9831 17.3038 26.9898
128 1 24.1908 18.8296 27.2293
129 1 26.7614 17.6034 27.2427
130 1 28.4226 20.0606 27.916
131 1 12.3316 24.185 26.8006
132 1 16.0365 22.4586 24.9505
133 1 16.0685 24.8013 28.75
134 1 17.8083 22.4058 27.0054
135 1 20.0753 24.2243 27.4435
136 1 23.6093 21.1579 25.7685
137 1 24.3501 22.861 27.6844
138 1 26.8743 21.9893 27.0688
139 1 29.1568 23.8988 28.2403
140 1 12.2853 26.8403 27.4783
141 1 14.7921 27.0174 26.3877
142 1 17.0304 27.8253 27.6976
143 1 17.5213 25.1985 26.3054
144 1 20.6535 28.2645 27.9138
145 1 20.9925 26.3161 25.9798
146 1 23.4747 28.0824 28.9073
147 1 25.1978 25.0697 26.4612
148 1 27.4435 28.9554 27.7666
149 1 16.597 18.0379 32.1415
150 1 19.7682 16.0305 33.0566
151 1 24.0818 17.1208 30.9779
152 1 27.7557 16.4503 31.9473
153 1 14.5203 19.3229 30.7284
154 1 13.2991 22.0099 31.1654
155 1 17.9688 20.0648 29.2552
156 1 20.3344 20.9862 31.7914
157 1 21.4951 18.5247 31.5113
158 1 23.9143 21.6428 31.5215
159 1 24.8475 19.5231 29.8486
160 1 27.4301 19.764 30.8832
161 1 13.4364 25.8847 32.1486
162 1 14.0836 22.9135 28.6997
163 1 16.229 24.0692 32.8102
164 1 18.1161 23.2919 29.8308
165 1 20.7055 24.5405 30.6855
166 1 22.4142 22.7424 29.5676
167 1 25.3523 24.0519 30.8334
168 1 27.6344 22.4295 30.2294
169 1 28.5665 23.7544 32.3789
170 1 11.3681 27.3218 30.0859
171 1 13.4132 28.8216 32.5021
172 1 15.5669 26.8251 30.5343
173 1 18.1053 26.6959 31.5564
174 1 19.0096 26.3283 28.9776
175 1 19.7863 28.8258 31.3538
176 1 21.7511 27.0489 30.7491
177 1 23.6808 27.6404 32.4733
178 1 25.4342 26.1641 28.9289
179 1 27.7524 27.4491 30.0534
180 1 13.4252 27.9886 36.7488
181 1 24.0831 17.8324 33.8772
182 1 27.5087 25.3148 35.9629
183 1 15.5086 18.3837 34.8038
184 1 16.2846 20.9102 34.1781
185 1 18.8619 18.4408 33.8308
186 1 20.5871 20.1915 35.0085
187 1 23.0348 20.401 33.8104
188 1 26.4762 23.623 34.176
189 1 26.8059 18.6722 33.4578
190 1 27.3281 21.1212 34.8548
191 1 13.1139 23.4719 36.1036
192 1 14.2037 22.6319 33.795
193 1 16.1335 25.0164 36.28
194 1 17.7366 21.4706 31.8628
195 1 19.7968 24.0155 35.1922
196 1 21.3436 23.3153 33.0495
197 1 18.0142 29.0976 25.4726
198 1 22.9396 29.759 26.6613
199 1 25.4603 30.8261 27.0116
200 1 23.7196 30.5957 30.1745
201 1 15.691 29.9569 33.3847
202 1 30.7851 21.7202 24.7314
203 1 28.32 27.2025 33.9981
204 1 29.5991 25.4508 30.4323
205 1 30.0468 18.8246 34.1565
206 1 29.8689 22.3065 34.3123
207 1 29.5523 31.3745 35.1384
208 1 19.0909 16.6465 39.8741
209 1 24.1539 16.2326 38.745
210 1 28.6447 15.2195 38.1899
211 1 16.5838 21.2706 38.4536
212 1 17.7529 18.6653 38.5451
213 1 19.9442 20.2625 39.1935
214 1 21.6774 18.7161 36.9306
215 1 24.7647 20.9161 41.0261
216 1 24.3677 18.1011 36.5463
217 1 27.2156 19.7805 39.1582
218 1 13.9722 22.3417 38.5522
219 1 14.5208 24.4253 40.6539
220 1 17.4578 22.5789 36.0744
221 1 19.7091 23.8925 38.5824
222 1 21.0324 21.8773 37.268
223 1 23.7695 24.7961 39.1029
224 1 25.6025 20.5097 37.0058
225 1 29.4625 24.4929 40.5158
226 1 14.6371 26.0617 38.3502
227 1 17.0308 26.8407 39.3855
228 1 18.6112 26.2028 37.1898
229 1 21.0531 27.1076 39.0731
230 1 21.8572 25.1752 37.0819
231 1 22.9123 29.0404 39.4607
232 1 24.963 27.2163 39.5522
233 1 28.3843 28.3749 41.0522
234 1 26.4487 16.8176 42.1157
235 1 19.8258 21.0519 42.4408
236 1 20.4874 18.584 41.3689
237 1 22.8945 18.3756 42.7744
238 1 24.5479 18.1431 40.6043
239 1 27.3952 20.4462 41.8489
240 1 18.1311 22.3405 40.4037
241 1 19.9735 24.8422 42.8172
242 1 22.6373 21.1319 42.7678
243 1 26.3676 24.137 44.3767
244 1 25.7821 23.0245 39.7684
245 1 26.9781 24.5448 41.7723
246 1 14.2101 26.959 42.2561
247 1 16.996 27.0199 43.2172
248 1 17.5821 24.9737 41.4549
249 1 21.5925 28.5178 43.7758
250 1 21.4231 24.8722 40.5177
251 1 24.0898 27.3923 43.9519
252 1 26.1176 27.108 42.1142
253 1 27.9111 27.9666 44.3373
254 1 25.1071 17.5982 44.3679
255 1 20.0687 22.8429 44.5868
256 1 22.9345 22.4304 45.3671
257 1 25.8162 21.5609 45.046
258 1 28.1507 22.3308 46.8208
259 1 27.9544 27.6492 48.6781
260 1 19.2232 26.919 44.8056
261 1 23.9112 24.9285 45.212
262 1 24.8071 25.8989 47.5323
263 1 27.4181 25.9227 46.1617
264 1 20.6107 27.7531 35.8481
265 1 17.8749 17.3444 36.1463
266 1 27.5816 17.195 35.5139
267 1 23.4599 21.9204 36.1075
268 1 23.7396 24.0453 34.338
269 1 19.2229 29.1526 39.3753
270 1 27.0938 28.5707 38.6138
271 1 28.92 17.9829 38.0188
272 1 28.8038 21.8645 38.154
273 1 29.2991 24.4923 37.7863
274 1 29.997 25.3786 46.3048
275 1 30.2466 29.2204 38.1633
276 1 29.0109 25.5479 50.043
277 1 30.6654 34.0198 11.852
278 1 24.9428 31.4343 13.0409
279 1 28.7206 33.3714 13.7959
280 1 23.1533 37.0232 12.9796
281 1 27.1248 37.565 13.2656
282 1 16.8849 32.0737 15.2429
283 1 20.9147 29.8159 13.9797
284 1 20.4809 32.5788 16.8553
285 1 23.4131 30.163 14.8445
286 1 25.2737 40.4573 21.1603
287 1 23.1015 31.9666 16.8397
288 1 27.3499 31.0577 14.4039
289 1 27.2945 31.5954 17.1296
290 1 19.4444 32.251 14.3073
291 1 19.0995 34.6947 13.0544
292 1 24.1423 34.1028 13.3775
293 1 22.849 35.062 15.7647
294 1 26.5855 34.9749 14.1927
295 1 28.6551 36.5116 16.7943
296 1 19.4542 37.753 16.6583
297 1 20.702 36.4644 14.4573
298 1 24.4816 37.9865 17.1667
299 1 24.943 38.5598 14.5398
300 1 27.1333 40.6873 15.4764
301 1 25.6207 43.5176 16.1479
302 1 27.5974 44.5131 17.9243
303 1 22.2964 41.9158 24.0737
304 1 17.5849 32.0927 19.8521
305 1 19.0293 30.5977 18.1223
306 1 20.9426 30.633 21.3017
307 1 22.4578 30.4078 19.0138
308 1 18.7231 42.9028 22.5709
309 1 23.7277 32.7565 20.1429
310 1 25.4176 29.7053 17.7142
311 1 28.7592 31.8179 21.4855
312 1 16.4627 33.5087 17.7308
313 1 17.0439 37.212 20.4793
314 1 20.0203 34.515 18.7212
315 1 21.7539 36.587 20.8527
316 1 22.7955 34.827 18.4957
317 1 24.441 36.1504 20.3612
318 1 25.3291 33.2643 17.8544
319 1 29.1491 35.0017 20.3561
320 1 16.6292 40.627 22.868
321 1 17.8191 35.9882 18.109
322 1 19.9257 40.0637 18.7595
323 1 21.8254 37.9501 18.313
324 1 22.7054 41.1162 21.4834
325 1 26.041 35.6819 16.8436
326 1 25.3512 40.4423 18.4186
327 1 20.0399 44.3644 20.4167
328 1 21.4777 42.3223 19.3749
329 1 24.4183 44.3099 21.0132
330 1 24.0542 42.8599 18.5518
331 1 27.3116 42.1704 21.0111
332 1 25.7372 37.9092 22.0827
333 1 19.5495 31.8921 23.7701
334 1 23.1015 29.0093 21.9018
335 1 26.6711 30.2563 21.943
336 1 21.1149 38.9861 21.877
337 1 17.3841 35.5169 22.5259
338 1 19.6765 33.2457 21.1083
339 1 23.4312 33.7305 22.7898
340 1 26.5054 34.6842 21.2787
341 1 15.0065 38.4474 21.7801
342 1 18.5116 39.4896 21.0817
343 1 17.0685 33.0775 23.8532
344 1 21.4311 33.5799 24.5307
345 1 25.8426 32.6002 22.8613
346 1 15.3885 36.7355 24.0662
347 1 20.2194 35.3102 22.778
348 1 24.0904 36.3118 23.7205
349 1 19.6836 40.7875 23.9718
350 1 24.7845 39.6493 25.1342
351 1 20.7322 44.2209 23.9759
352 1 24.2464 44.3641 25.9178
353 1 30.4869 29.9596 12.4673
354 1 30.9371 33.2587 15.3756
355 1 28.9973 41.3162 22.7986
356 1 29.6731 37.6792 14.4862
357 1 29.2267 32.2888 18.8658
358 1 30.9534 30.5033 22.1186
359 1 15.2047 34.2445 25.763
360 1 27.0718 44.2387 35.4527
361 1 24.2328 41.2906 34.4624
362 1 27.1415 32.1927 25.1596
363 1 22.2991 42.4554 36.0288
364 1 18.7098 36.0056 25.3117
365 1 21.4428 42.9405 33.4159
366 1 27.6249 36.1275 23.3166
367 1 18.8585 44.4216 37.4469
368 1 16.3384 40.5546 25.612
369 1 17.1645 42.4359 34.0366
370 1 28.8049 39.398 24.5923
371 1 14.9468 40.6951 34.5004
372 1 27.0938 41.306 35.2338
373 1 27.8528 42.9135 24.7606
374 1 26.3446 38.7946 34.6623
375 1 11.7296 29.3339 26.11
376 1 12.5568 31.1845 27.986
377 1 14.9204 31.6478 26.694
378 1 24.8316 39.1431 36.9935
379 1 17.6397 31.2935 27.0563
380 1 21.37 31.9031 29.3792
381 1 21.8452 39.5559 34.5843
382 1 24.7281 33.4074 27.6288
383 1 19.3445 40.8442 34.9972
384 1 28.3678 31.5024 28.6289
385 1 12.5782 36.425 28.6142
386 1 15.1387 36.0926 27.7712
387 1 15.7548 35.697 30.3633
388 1 18.8603 33.8261 26.8161
389 1 19.464 34.6662 29.3753
390 1 22.0779 33.493 27.2687
391 1 22.333 36.2415 27.7996
392 1 24.6944 35.8336 26.385
393 1 26.9584 36.0623 28.0846
394 1 16.7769 37.8567 26.4977
395 1 19.1471 38.8564 27.7242
396 1 20.7394 37.518 25.966
397 1 21.5259 38.5838 29.272
398 1 22.4349 38.4968 24.1933
399 1 23.8427 39.625 27.7332
400 1 26.8932 37.7753 25.4449
401 1 27.3908 39.4228 28.0833
402 1 15.6347 42.204 27.6932
403 1 18.1887 43.7788 28.0424
404 1 18.8129 41.3769 26.6088
405 1 21.4719 43.2829 28.4348
406 1 23.0537 41.987 26.6611
407 1 25.0118 42.3447 29.1926
408 1 26.2748 41.5513 26.6125
409 1 28.5867 45.1056 28.21
410 1 12.1155 29.9478 30.4223
411 1 12.1295 32.4806 31.5181
412 1 15.3722 29.4146 29.3996
413 1 16.4906 31.1407 31.0442
414 1 18.8754 30.5277 29.4632
415 1 18.2364 38.3849 35.2466
416 1 22.0495 32.7069 33.7393
417 1 26.2328 31.6087 33.0575
418 1 26.1498 31.8843 30.2753
419 1 29.0502 31.2028 32.4184
420 1 11.5897 33.7027 29.0679
421 1 13.9737 36.841 34.1676
422 1 14.92 33.3751 31.5875
423 1 17.0087 34.5158 33.2997
424 1 18.3781 33.2649 31.3524
425 1 20.1945 36.1025 32.5889
426 1 21.516 33.8528 31.3301
427 1 23.7497 35.3088 31.8054
428 1 25.6511 34.573 30.1174
429 1 27.3823 36.1585 31.7265
430 1 13.5274 37.2072 31.2184
431 1 15.143 39.3786 32.1029
432 1 18.2774 36.7977 30.7365
433 1 20.8734 40.5803 32.2088
434 1 22.3938 37.6718 31.7599
435 1 24.6824 39.1936 32.4777
436 1 27.0003 38.9193 30.8761
437 1 28.7444 41.0704 31.2879
438 1 16.3519 41.0419 30.2483
439 1 16.5734 43.3735 31.4996
440 1 18.7019 39.6497 30.9492
441 1 20.0016 45.255 33.024
442 1 22.3692 41.129 29.9205
443 1 23.5573 44.4584 32.4125
444 1 27.5621 43.1969 29.9838
445 1 27.987 45.4102 31.5288
446 1 12.1311 29.9812 34.7613
447 1 16.5517 37.2896 33.3928
448 1 14.3031 31.647 35.1081
449 1 28.6423 37.307 35.306
450 1 17.4469 29.7012 37.3553
451 1 27.2333 34.1774 33.6983
452 1 19.7268 29.6094 33.9882
453 1 20.3691 31.7803 35.7161
454 1 23.4995 36.9823 37.9951
455 1 23.6744 30.6607 33.0407
456 1 23.3756 34.9753 34.42
457 1 26.3856 30.6512 35.5011
458 1 21.9393 36.9045 35.6874
459 1 19.6627 35.2785 35.0841
460 1 14.5255 34.4085 35.4686
461 1 17.1243 34.8144 36.4549
462 1 29.9394 29.7463 30.201
463 1 30.958 36.8993 33.6688
464 1 31.3288 40.8561 30.2805
465 1 14.777 30.2571 37.4168
466 1 15.0549 31.7814 39.8638
467 1 27.3942 40.2698 44.8822
468 1 20.6851 31.4836 39.947
469 1 21.9336 29.9046 37.0659
470 1 24.7015 32.5737 37.8681
471 1 26.6041 37.6926 45.8783
472 1 29.4567 31.8708 39.0892
473 1 13.8209 33.9693 40.2116
474 1 15.4165 35.3151 42.0066
475 1 18.1872 32.4047 37.3429
476 1 20.2248 35.1351 39.0379
477 1 21.8714 33.1254 38.025
478 1 24.3018 34.9002 41.5849
479 1 25.0663 34.9917 38.9781
480 1 27.411 36.1019 39.5702
481 1 16.3116 37.0924 38.2417
482 1 16.5664 37.729 40.9384
483 1 19.1221 37.2531 37.707
484 1 19.9969 39.6545 38.7
485 1 23.2971 37.461 40.6854
486 1 23.5276 40.2238 40.3641
487 1 28.443 38.0323 37.9857
488 1 30.6613 38.3634 39.4499
489 1 18.3819 41.5442 37.5073
490 1 21.5878 44.0025 40.3209
491 1 22.4822 40.4039 37.7962
492 1 24.1294 44.2171 41.5494
493 1 27.1403 40.4068 37.7914
494 1 28.1538 42.2153 39.4619
495 1 15.502 29.1889 40.657
496 1 18.273 31.073 43.7427
497 1 17.9414 29.1297 41.7907
498 1 22.1999 32.7021 45.0108
499 1 22.389 30.2824 41.8155
500 1 22.7867 38.9928 44.403
501 1 24.9965 30.7502 42.4093
502 1 26.0441 30.9416 39.656
503 1 28.0699 31.5175 44.2271
504 1 16.8162 32.7842 42.0341
505 1 18.5788 33.1259 39.9558
506 1 20.637 35.4295 43.5363
507 1 22.2038 33.352 42.2679
508 1 24.8117 37.2236 43.7614
509 1 26.2984 32.9571 41.757
510 1 27.5477 34.5209 43.5144
511 1 19.019 38.7562 41.3001
512 1 20.4834 40.1443 43.3759
513 1 20.7453 36.7039 41.1939
514 1 24.8471 41.066 44.6771
515 1 27.0359 36.8289 42.1533
516 1 28.6557 38.7622 43.0368
517 1 21.1424 41.4822 40.9539
518 1 25.0473 41.8009 41.9999
519 1 28.366 44.8435 42.0162
520 1 19.0702 29.7162 46.0056
521 1 28.5045 35.732 46.5819
522 1 21.9764 30.103 46.0462
523 1 23.6559 28.5206 47.9645
524 1 25.7248 29.5863 44.8624
525 1 25.77 33.8466 45.4967
526 1 26.3245 31.3554 46.9333
527 1 19.4036 33.3136 44.804
528 1 22.9743 35.4165 45.081
529 1 24.8425 36.0076 47.2548
530 1 16.2345 39.5071 36.8248
531 1 25.5414 34.6281 35.8886
532 1 27.7663 32.4913 37.1029
533 1 13.8561 35.5181 37.9942
534 1 28.8709 42.5751 43.8768
535 1 29.6748 34.6305 39.3058
536 1 30.5074 38.4867 45.3046
537 1 30.6424 43.0021 38.4794
538 1 28.9398 30.9879 41.5532
539 1 26.0004 29.5224 49.0885
540 1 29.1126 35.1169 49.4524
541 1 27.1455 44.8685 20.6619
542 1 22.1798 45.5952 22.065
543 1 25.6044 43.9995 23.5209
544 1 23.5925 47.5097 23.6241
545 1 26.603 46.5174 24.2311
546 1 28.0747 47.3401 37.4628
547 1 20.3028 45.0772 26.5419
548 1 22.5945 46.6007 26.2863
549 1 24.3026 47.001 28.5142
550 1 26.302 45.9485 26.9453
551 1 29.4177 47.7499 28.4947
552 1 18.7087 45.0643 30.6204
553 1 23.523 44.6513 29.6813
554 1 24.6261 47.9658 33.0719
555 1 27.8138 48.0218 30.6694
556 1 29.131 48.5797 33.2001
557 1 25.0805 48.723 30.5887
558 1 18.0877 44.9993 34.878
559 1 22.4608 46.3999 33.9753
560 1 25.9375 45.4825 33.3207
561 1 21.7062 44.5535 37.6225
562 1 26.0486 45.5996 37.6406
563 1 26.5176 44.3284 40.0617
564 1 23.4368 46.5189 36.5589
565 1 30.6112 46.1756 38.4588
566 1 30.995 44.7995 40.9501
567 1 29.9265 14.5119 18.3138
568 1 32.5609 15.5877 18.2505
569 1 38.0139 16.4256 21.8919
570 1 34.2438 13.8597 19.9205
571 1 37.5361 15.2153 24.2587
572 1 33.5056 12.9157 22.3926
573 1 40.1748 15.1321 34.8866
574 1 33.7513 11.9533 26.1743
575 1 35.1744 12.2917 28.6441
576 1 37.6089 13.9618 34.4175
577 1 34.9882 13.963 24.7476
578 1 39.1853 15.3233 26.5414
579 1 40.973 14.3412 28.4968
580 1 32.8666 11.6932 32.0883
581 1 35.2043 10.9374 31.0796
582 1 37.2808 12.7837 31.7595
583 1 33.4495 14.1417 33.1727
584 1 33.8813 14.882 28.5527
585 1 36.9375 15.3087 30.8409
586 1 43.6029 15.4421 29.1704
587 1 31.144 11.1657 34.3463
588 1 36.817 13.5135 37.1644
589 1 30.3858 14.5502 36.2142
590 1 34.2307 13.9181 37.9598
591 1 37.3413 16.2198 37.8076
592 1 33.0596 15.2058 40.3608
593 1 32.6874 13.2542 35.7381
594 1 34.6645 31.4699 10.7124
595 1 33.9346 24.8388 12.925
596 1 36.6364 24.0799 12.6224
597 1 32.1447 27.9177 11.9732
598 1 36.2271 29.1411 11.379
599 1 33.8086 17.6074 16.6868
600 1 31.7408 19.3677 16.5587
601 1 44.5594 26.9888 22.5146
602 1 32.3692 21.1208 14.5733
603 1 34.7322 19.3795 14.5367
604 1 36.3491 20.8266 16.1936
605 1 40.7894 20.4126 16.5215
606 1 29.5001 20.6778 13.681
607 1 31.3072 25.1238 16.6616
608 1 33.2249 23.7066 15.3076
609 1 35.5369 24.3135 16.8346
610 1 37.8666 22.2881 14.2228
611 1 40.1964 22.9519 17.4448
612 1 29.9296 26.9875 15.0024
613 1 33.1738 27.8961 17.2461
614 1 35.6536 26.9725 13.0049
615 1 36.3491 28.8148 15.0765
616 1 38.0771 25.0322 16.4663
617 1 38.2851 27.7432 16.6343
618 1 39.6803 24.5864 14.3939
619 1 43.3729 27.7998 16.1947
620 1 31.6844 17.7732 19.6136
621 1 35.8804 16.123 20.3157
622 1 40.6895 15.9267 21.3644
623 1 29.3416 18.8446 18.969
624 1 41.4824 24.8345 21.4529
625 1 33.2952 19.6857 20.6969
626 1 35.9944 18.0508 18.325
627 1 35.5953 21.0931 22.1565
628 1 38.3109 19.5661 17.6334
629 1 41.5746 19.9823 21.2071
630 1 46.3804 20.9148 22.7758
631 1 33.3202 24.1199 20.4573
632 1 35.1343 20.8111 18.7676
633 1 35.9071 23.1011 20.1471
634 1 39.1663 20.5548 20.0971
635 1 39.2708 23.2025 20.8233
636 1 42.4336 21.4062 18.9231
637 1 44.7139 23.1047 19.1578
638 1 31.2816 26.2743 19.2051
639 1 37.6093 25.2301 22.2313
640 1 32.3175 27.9866 21.0503
641 1 34.4903 26.044 18.8584
642 1 36.2353 27.1546 20.7208
643 1 37.9677 24.8726 19.18
644 1 39.6821 26.7241 20.4066
645 1 41.7727 24.9024 16.2192
646 1 43.3023 26.5277 20.1132
647 1 44.3839 25.3129 17.7625
648 1 30.3311 17.1528 21.8763
649 1 34.3986 17.5442 22.0591
650 1 37.0919 19.0443 21.1523
651 1 41.9911 17.7975 22.9212
652 1 32.6545 27.3803 23.7347
653 1 33.5996 23.0657 23.0337
654 1 36.7674 21.6425 24.5134
655 1 42.0553 21.461 23.4299
656 1 45.9403 23.3257 21.671
657 1 28.5505 27.6185 21.8121
658 1 40.5946 17.4313 25.3283
659 1 33.4187 20.1693 24.6922
660 1 39.5518 21.3278 24.5802
661 1 44.1096 19.4152 23.5887
662 1 35.9269 24.0373 23.92
663 1 41.8577 24.3256 24.2251
664 1 30.2835 28.6404 24.0855
665 1 39.6621 28.3962 24.906
666 1 47.4329 27.1127 23.0562
667 1 30.6789 29.0915 17.5881
668 1 37.2713 28.9143 18.919
669 1 41.5846 28.4597 19.176
670 1 39.5893 28.8662 22.2701
671 1 46.8834 30.1397 23.0621
672 1 32.4148 16.1869 23.2399
673 1 35.1912 16.4091 26.0784
674 1 46.6367 28.6855 35.0362
675 1 35.9186 18.4545 24.1611
676 1 46.708 26.0397 32.3634
677 1 41.3826 28.4328 34.2666
678 1 32.5247 24.8519 24.8576
679 1 42.5925 25.9106 34.2651
680 1 44.9885 24.6775 23.9844
681 1 39.765 27.9903 36.3758
682 1 48.2462 24.8948 21.5817
683 1 34.6854 28.3006 25.3378
684 1 36.7833 25.2322 32.6333
685 1 44.2497 29.3037 23.817
686 1 37.0408 27.9127 36.1854
687 1 31.6734 15.6861 27.1845
688 1 37.0564 16.157 28.2014
689 1 39.7028 15.7389 30.4266
690 1 44.3543 17.7866 27.9817
691 1 30.4047 19.4365 26.2134
692 1 32.2786 19.3856 28.3347
693 1 32.786 17.5674 25.564
694 1 37.1434 20.1376 27.3852
695 1 38.3793 18.9969 25.2322
696 1 40.4995 18.8522 29.789
697 1 41.7943 18.8091 27.3661
698 1 43.0762 21.195 27.7824
699 1 45.6018 18.8663 25.7372
700 1 32.5291 27.4554 33.9947
701 1 31.4715 23.3514 26.8772
702 1 34.4899 20.6493 27.1864
703 1 35.5496 24.802 28.3675
704 1 39.6626 23.7651 25.663
705 1 39.704 23.9303 28.3262
706 1 43.7176 23.184 26.1106
707 1 44.0968 25.6965 27.3499
708 1 46.4289 21.705 25.5934
709 1 47.7088 23.8897 27.2748
710 1 28.3585 27.5401 25.6092
711 1 31.9744 29.1614 36.0688
712 1 32.5212 29.2243 29.1228
713 1 34.932 25.6144 25.8752
714 1 36.2074 28.6357 28.3038
715 1 38.5243 26.0684 24.6979
716 1 40.6518 26.4931 28.0597
717 1 42.0216 26.7412 25.6449
718 1 43.8052 29.5852 29.6971
719 1 46.8212 26.0171 25.5472
720 1 46.3764 28.5246 26.7261
721 1 32.7591 15.8694 31.0594
722 1 35.793 15.8044 33.2661
723 1 40.6419 17.04 33.0852
724 1 45.0495 17.5277 32.2967
725 1 32.7594 18.6569 30.902
726 1 31.2269 20.846 32.3895
727 1 33.9718 21.1625 31.0093
728 1 36.7767 20.8618 30.8633
729 1 37.7365 18.5354 29.6417
730 1 40.6602 20.9836 31.5348
731 1 42.5461 17.1965 31.1061
732 1 44.1416 20.6146 32.0563
733 1 44.9402 20.0877 29.4419
734 1 30.5974 21.115 29.5554
735 1 32.4418 25.2815 31.6293
736 1 33.6304 22.72 28.6762
737 1 34.419 23.528 32.5992
738 1 37.3025 22.5611 28.7374
739 1 40.6051 24.5603 33.0557
740 1 41.679 22.6226 29.6119
741 1 44.1351 23.9434 30.1155
742 1 46.3539 22.5033 29.2873
743 1 47.3383 23.3274 31.9306
744 1 30.3377 27.4844 32.3331
745 1 33.5105 26.7054 29.5346
746 1 34.1007 29.251 32.7427
747 1 37.7262 26.2964 28.8387
748 1 39.0336 26.0335 31.3079
749 1 42.9034 26.9666 29.5777
750 1 44.0286 26.7581 32.1158
751 1 45.9336 25.937 29.3967
752 1 48.363 27.6504 30.9276
753 1 48.8093 25.2061 29.5833
754 1 31.2988 16.4352 34.3404
755 1 45.5716 23.3284 34.1174
756 1 39.6261 17.2785 36.693
757 1 41.9583 23.6493 36.0069
758 1 30.2571 19.9789 36.7463
759 1 43.0832 23.2293 32.5781
760 1 33.9149 17.2205 34.7059
761 1 34.2147 19.7667 36.0619
762 1 38.0418 17.8295 32.6493
763 1 39.011 19.6689 35.3007
764 1 38.3765 23.7849 34.4933
765 1 41.9831 19.5377 33.4826
766 1 44.751 21.324 35.8996
767 1 46.1321 19.5762 33.8049
768 1 31.4827 23.4091 36.3566
769 1 38.3966 21.3738 33.07
770 1 34.0467 22.5009 35.1271
771 1 33.6399 25.6545 35.8411
772 1 29.6336 31.0292 25.5855
773 1 33.6775 30.3346 26.9101
774 1 43.9543 29.7555 26.7
775 1 34.8833 30.0022 30.3028
776 1 36.3517 29.6765 34.1835
777 1 44.8324 29.2386 32.943
778 1 48.9369 30.4753 34.59
779 1 30.9367 17.5141 39.9315
780 1 34.5825 17.3579 41.2177
781 1 38.4874 16.3382 40.2128
782 1 31.5852 20.125 40.8146
783 1 33.6082 18.4237 38.8081
784 1 34.5377 21.096 39.6319
785 1 36.8562 19.6472 37.0738
786 1 38.7004 20.0055 40.7427
787 1 40.2975 18.3104 39.1649
788 1 41.955 20.5769 38.666
789 1 41.5216 26.5173 43.9559
790 1 32.5527 24.6133 39.9517
791 1 32.2122 21.362 38.2073
792 1 35.8529 24.3678 38.6203
793 1 37.1336 21.4939 39.0742
794 1 39.0583 23.5512 39.1897
795 1 41.5956 20.9146 35.8835
796 1 43.0685 22.5128 40.3452
797 1 43.9348 23.3142 37.843
798 1 32.0956 28.077 39.8949
799 1 33.7432 27.7862 37.6208
800 1 36.4064 26.7434 40.0959
801 1 36.3956 25.0798 36.0515
802 1 39.5585 29.1022 40.2136
803 1 40.4691 25.4848 37.6215
804 1 45.0504 28.1068 38.2601
805 1 44.2651 25.9625 36.7275
806 1 31.0102 17.4654 44.111
807 1 29.2772 16.6647 41.9721
808 1 35.8646 25.6037 44.998
809 1 31.5099 22.3465 43.6723
810 1 33.0356 18.9639 42.8413
811 1 34.6731 20.1584 44.702
812 1 37.1619 18.0675 41.9778
813 1 37.0374 18.7252 44.6776
814 1 29.5329 21.8405 40.8445
815 1 31.3693 25.1012 44.0013
816 1 33.3488 22.4816 41.638
817 1 35.3292 23.9556 42.889
818 1 36.7086 21.7716 43.9464
819 1 39.8259 24.2531 43.1806
820 1 40.3501 22.295 41.2464
821 1 30.5494 26.6403 41.799
822 1 35.0908 28.5285 47.6768
823 1 33.3126 28.079 43.3586
824 1 34.1534 26.1353 41.5607
825 1 36.2515 28.1622 44.0985
826 1 38.7231 25.5953 41.0168
827 1 39.8636 28.6878 44.9962
828 1 40.9358 26.7989 39.9863
829 1 43.0286 26.693 41.701
830 1 44.5304 24.3808 41.6801
831 1 27.8644 18.8241 43.8916
832 1 30.4241 19.2528 46.1113
833 1 29.0321 21.398 44.263
834 1 30.1511 23.6527 48.3544
835 1 33.331 25.5126 45.9868
836 1 32.4682 21.1794 45.9721
837 1 32.9322 23.4032 47.6481
838 1 37.9757 23.732 45.3199
839 1 31.4609 27.583 46.5269
840 1 46.6145 25.5109 35.1931
841 1 34.6876 16.5355 37.2542
842 1 34.3738 30.5533 37.7786
843 1 45.1943 30.5476 36.602
844 1 38.3133 29.1443 42.6683
845 1 30.6689 28.8132 44.2131
846 1 32.2898 31.9261 11.8503
847 1 35.9331 32.8937 12.8254
848 1 31.6521 35.8714 13.6629
849 1 36.0264 38.5285 12.5618
850 1 39.8562 42.2257 22.3083
851 1 31.1599 30.4216 15.1745
852 1 33.1843 28.6581 14.5676
853 1 36.4686 40.7987 20.5511
854 1 34.6462 32.2494 16.3737
855 1 37.5883 30.6847 13.4889
856 1 39.7878 31.2539 15.1638
857 1 40.7848 28.8606 16.5034
858 1 31.2399 41.3053 21.0527
859 1 42.5718 32.7552 17.0801
860 1 30.3814 34.5695 17.6574
861 1 33.5208 33.1174 14.025
862 1 35.8758 36.5485 15.898
863 1 36.591 33.9952 15.3386
864 1 39.0134 34.0646 16.5029
865 1 41.2224 33.8536 14.9153
866 1 43.7226 39.5413 21.1119
867 1 32.9607 39.9074 15.0223
868 1 33.9607 37.5056 14.1173
869 1 37.359 41.0366 16.1145
870 1 37.5678 38.4977 14.8798
871 1 40.2861 38.8724 15.3795
872 1 30.049 40.4641 14.7239
873 1 30.4107 41.8937 16.9503
874 1 34.8606 42.1073 15.4606
875 1 41.0636 36.5453 21.8448
876 1 31.5708 30.9974 19.3719
877 1 35.2119 29.7307 17.3272
878 1 38.8652 37.8978 22.9153
879 1 35.3303 31.9657 20.9727
880 1 38.7633 30.7281 20.241
881 1 34.3954 38.0692 21.7822
882 1 42.55 30.8834 20.2073
883 1 43.9651 30.428 16.7767
884 1 31.2383 36.694 20.1174
885 1 33.5805 35.2115 19.8252
886 1 33.6122 32.6344 18.8707
887 1 36.7536 36.7642 21.5523
888 1 37.0762 32.9987 18.5595
889 1 39.6197 34.4622 20.7525
890 1 40.6142 32.4127 19.1604
891 1 44.6811 34.898 20.7868
892 1 44.5024 32.5517 19.1505
893 1 28.3972 39.1284 17.5745
894 1 30.8152 39.3086 19.134
895 1 35.8344 36.4134 18.731
896 1 34.9779 38.8848 19.2489
897 1 38.598 35.8837 18.5985
898 1 39.7155 38.4745 19.055
899 1 41.6479 37.5008 17.5154
900 1 43.0347 37.0336 19.9758
901 1 28.0546 41.8462 18.4515
902 1 45.9022 36.2635 22.8072
903 1 31.592 43.7453 19.6635
904 1 33.1009 39.9994 17.7466
905 1 35.161 43.3002 20.3433
906 1 38.4719 40.9547 18.5711
907 1 39.3023 43.4108 19.8667
908 1 41.3516 34.2381 24.4067
909 1 34.7356 29.4063 21.5594
910 1 37.8439 32.6206 21.8937
911 1 42.5969 31.1256 22.8599
912 1 34.0692 34.0566 22.2799
913 1 29.4372 34.0693 22.9652
914 1 31.855 32.8095 23.4045
915 1 38.0073 31.8059 24.4626
916 1 32.2146 36.7074 22.6975
917 1 43.1155 36.5932 23.6661
918 1 31.6698 41.4807 24.5601
919 1 33.666 40.7795 22.1607
920 1 37.8456 40.4331 22.96
921 1 30.9486 43.8805 23.2173
922 1 38.9852 43.889 24.2701
923 1 40.6876 31.6356 24.7338
924 1 45.498 40.1203 32.134
925 1 43.6576 33.614 22.9691
926 1 47.5468 32.2949 24.6801
927 1 41.4501 41.0078 32.5759
928 1 36.1331 35.3645 23.9534
929 1 39.2828 36.0029 24.8485
930 1 37.424 42.0735 31.0986
931 1 45.7463 39.0014 23.2585
932 1 35.4282 43.3494 33.8922
933 1 33.793 40.9211 33.0365
934 1 42.0911 40.8308 22.8029
935 1 29.5515 41.3679 33.9575
936 1 34.4483 44.1226 24.3738
937 1 43.9356 36.7494 32.5509
938 1 43.3153 39.2586 33.5895
939 1 31.9666 33.5737 28.8827
940 1 35.7436 31.9493 27.9335
941 1 37.1532 29.5002 25.6638
942 1 40.8561 36.2338 32.271
943 1 39.3435 33.1717 28.3248
944 1 41.1609 29.7882 26.7753
945 1 44.1172 32.4395 27.245
946 1 48.4545 31.2386 29.1622
947 1 48.6235 30.4635 26.4159
948 1 37.9644 38.4009 32.6559
949 1 28.129 33.8379 27.1057
950 1 32.5845 35.3507 25.2082
951 1 32.3052 32.515 26.1876
952 1 35.9628 35.1667 27.9139
953 1 37.7523 33.8864 26.1345
954 1 40.1703 36.4715 27.412
955 1 42.528 35.1898 26.7238
956 1 45.0306 36.0677 26.6471
957 1 45.4131 33.7277 25.1326
958 1 48.028 33.8878 28.9894
959 1 31.3814 38.7154 24.1651
960 1 35.2939 38.8119 35.538
961 1 30.6892 39.1801 28.2788
962 1 32.5995 38.0956 26.4628
963 1 34.989 39.3297 26.5576
964 1 36.4272 37.1264 26.0681
965 1 39.7375 40.4107 26.7054
966 1 41.2729 39.1672 24.7779
967 1 43.1703 39.8364 27.7546
968 1 44.0856 38.5396 25.6035
969 1 29.8523 41.0146 26.5492
970 1 32.1192 45.0877 28.7592
971 1 34.3996 41.4444 24.8674
972 1 35.9396 42.4336 27.919
973 1 37.6369 41.7787 25.5117
974 1 40.1825 44.4961 28.1342
975 1 44.0108 42.2347 24.1305
976 1 43.2383 43.7102 26.2705
977 1 45.3203 44.3331 28.0123
978 1 33.5845 36.8973 34.3595
979 1 30.9285 33.0184 31.3259
980 1 31.197 39.721 35.2115
981 1 35.2222 32.5167 31.4329
982 1 37.9632 31.0594 29.3991
983 1 38.0396 30.5021 32.0983
984 1 39.7446 29.0052 29.0703
985 1 45.707 37.6897 36.2987
986 1 42.9706 31.9257 31.1387
987 1 46.6901 29.174 29.3318
988 1 46.2892 31.2147 31.6614
989 1 48.8572 30.2719 31.8155
990 1 46.3445 33.559 33.0994
991 1 30.5262 35.0918 27.0489
992 1 30.1038 35.6696 31.2906
993 1 34.273 34.5825 29.9316
994 1 35.5018 35.7416 32.4373
995 1 38.3047 35.4329 29.2507
996 1 38.2704 35.6829 31.8423
997 1 41.9361 33.3072 28.9466
998 1 42.7321 35.889 29.9433
999 1 45.2253 33.0071 29.7882
1000 1 46.6392 36.0339 31.7546
1001 1 49.3035 35.4777 30.9611
1002 1 29.4898 36.8698 28.8834
1003 1 44.0276 34.555 34.1221
1004 1 32.0255 39.0279 32.1248
1005 1 33.5829 37.5229 30.5281
1006 1 35.6238 39.3716 31.6049
1007 1 38.2167 38.5791 27.8955
1008 1 40.39 38.8557 31.3667
1009 1 41.5484 38.2042 29.0484
1010 1 45.4584 39.4304 29.458
1011 1 45.3761 36.6002 29.3339
1012 1 31.7137 43.0663 32.8723
1013 1 33.2861 42.6944 29.2795
1014 1 35.0124 43.4976 31.1864
1015 1 36.0908 39.9196 28.982
1016 1 38.5959 44.5475 31.4392
1017 1 41.4654 42.1326 28.0763
1018 1 42.5493 42.5191 30.5765
1019 1 45.2318 42.4481 30.0367
1020 1 42.034 32.7321 33.685
1021 1 32.2738 31.7867 35.281
1022 1 40.6711 35.7267 35.0288
1023 1 32.9584 31.7464 32.674
1024 1 35.7009 31.7986 35.6624
1025 1 37.6125 33.1381 32.8019
1026 1 39.3657 33.1067 34.9292
1027 1 39.974 28.5761 31.8583
1028 1 43.1844 30.4442 34.7477
1029 1 34.5516 33.9799 34.2703
1030 1 30.7645 35.1238 36.9396
1031 1 47.0987 32.6151 35.637
1032 1 29.8656 34.3022 34.5841
1033 1 31.3804 43.0422 45.228
1034 1 32.3195 32.048 39.2723
1035 1 35.741 31.0152 40.0967
1036 1 37.1811 29.0016 38.8217
1037 1 40.2144 32.802 38.2666
1038 1 40.1748 30.8864 36.2458
1039 1 38.5245 37.9388 44.5948
1040 1 44.7029 31.2609 39.1492
1041 1 34.6103 38.7387 44.8705
1042 1 31.3614 34.9178 41.3484
1043 1 32.9647 33.6302 37.1685
1044 1 33.8215 35.7037 40.1121
1045 1 37.9542 34.341 37.0554
1046 1 38.0238 35.083 39.7668
1047 1 41.5749 35.1903 37.505
1048 1 44.1496 35.5862 38.607
1049 1 45.5774 34.9324 36.3428
1050 1 31.6932 37.669 36.9608
1051 1 31.766 40.8464 39.8649
1052 1 34.2254 37.2299 37.861
1053 1 34.0551 39.8465 38.9883
1054 1 37.3445 37.2563 36.8422
1055 1 37.6739 37.9278 39.4009
1056 1 42.8271 37.9829 35.9261
1057 1 41.9493 39.2484 38.3496
1058 1 44.489 38.3505 38.9306
1059 1 41.9854 33.6354 44.2777
1060 1 33.5718 43.1463 37.8246
1061 1 33.5641 41.0164 35.9281
1062 1 35.6457 43.4395 39.5304
1063 1 36.9481 41.0866 34.717
1064 1 37.7815 41.4632 37.3995
1065 1 40.0967 40.2344 36.5929
1066 1 31.0218 31.3719 43.3679
1067 1 33.5675 29.9617 41.3117
1068 1 37.6558 33.8176 44.1953
1069 1 34.6141 32.662 44.4976
1070 1 36.2171 36.936 46.3363
1071 1 38.8816 31.8018 42.955
1072 1 40.3659 31.6465 40.7058
1073 1 42.1986 33.5025 41.6292
1074 1 44.6409 28.8241 40.7846
1075 1 30.1951 33.9804 43.7483
1076 1 35.2604 34.2708 46.5518
1077 1 31.3645 35.6586 45.5346
1078 1 33.0556 32.7488 42.1153
1079 1 35.5505 35.1861 43.0269
1080 1 35.7374 33.7338 40.6384
1081 1 39.8571 35.5242 44.0188
1082 1 40.3702 35.5937 41.2441
1083 1 44.5947 33.6939 40.6038
1084 1 31.0609 37.5275 41.9877
1085 1 32.3662 40.507 44.9916
1086 1 33.2158 36.6391 43.7559
1087 1 35.3603 39.9188 42.3857
1088 1 35.6471 37.4295 41.3027
1089 1 39.0244 39.4998 42.4122
1090 1 40.206 38.2122 40.2911
1091 1 29.4014 40.9542 41.5893
1092 1 31.1257 33.6547 47.5871
1093 1 32.7919 43.8739 42.8743
1094 1 33.0182 41.2317 42.3731
1095 1 36.6582 40.4838 39.9082
1096 1 28.6653 32.8788 46.5463
1097 1 32.1063 31.1475 47.6689
1098 1 33.7761 30.2179 45.7064
1099 1 37.5763 32.181 46.472
1100 1 40.2862 31.5182 45.3119
1101 1 37.3584 29.4142 46.3321
1102 1 39.7109 42.0066 34.4288
1103 1 30.7049 43.3401 35.8048
1104 1 39.2238 38.0668 35.1184
1105 1 35.2872 34.8852 36.7443
1106 1 30.4066 29.0904 48.5855
1107 1 33.1556 29.6047 49.7242
1108 1 30.4337 44.701 17.2459
1109 1 33.7295 42.6867 18.0538
1110 1 28.9923 45.775 22.7098
1111 1 33.361 44.6068 21.7685
1112 1 37.1806 45.0067 20.4846
1113 1 33.5961 47.4088 22.5013
1114 1 31.0668 47.2037 24.0131
1115 1 31.8433 48.4973 33.6437
1116 1 29.9473 43.7381 26.3567
1117 1 32.7106 49.2169 27.3604
1118 1 32.2471 45.2585 25.767
1119 1 35.6804 47.712 24.3619
1120 1 36.8332 45.3742 23.4128
1121 1 40.8613 45.3225 25.7205
1122 1 30.4971 48.952 26.1326
1123 1 39.3214 44.6069 35.2101
1124 1 30.8012 45.1027 31.2401
1125 1 32.6364 47.1745 31.5257
1126 1 34.1553 47.1576 26.6508
1127 1 36.0194 46.7304 28.5672
1128 1 37.5697 44.515 28.7796
1129 1 41.2298 45.0046 30.5288
1130 1 36.9945 45.6035 33.4129
1131 1 37.2962 48.4354 26.7407
1132 1 28.9709 46.3677 35.0208
1133 1 36.0533 46.1199 36.1048
1134 1 31.6627 46.5744 35.7395
1135 1 35.1555 46.3331 31.1461
1136 1 33.7378 44.762 35.6334
1137 1 35.0088 44.9526 41.6827
1138 1 37.5742 44.213 37.5721
1139 1 31.738 48.7774 29.5748
1140 2 27.6358 16.5134 19.4065
1141 2 27.3236 16.6107 17.8712
1142 2 22.2593 15.2758 24.0142
1143 2 26.0835 14.9519 22.7489
1144 2 27.3324 15.4011 21.8607
1145 2 27.2816 12.8652 23.0862
1146 2 29.4717 14.9387 17.5577
1147 2 30.2431 13.748 22.7709
1148 2 26.4375 15.4004 32.2477
1149 2 25.1669 13.5959 24.2738
1150 2 24.1948 14.2278 23.2242
1151 2 25.7762 14.532 33.3917
1152 2 28.2 12.4171 24.243
1153 2 24.0298 12.8525 26.9984
1154 2 23.5255 12.2239 28.3227
1155 2 28.786 13.3343 26.37
1156 2 28.0087 12.5359 27.5001
1157 2 19.5599 15.2328 26.3142
1158 2 18.5466 16.2206 27.0584
1159 2 21.8845 13.9476 26.3155
1160 2 21.8485 15.5089 26.3664
1161 2 26.418 12.8534 26.0751
1162 2 25.6713 14.099 26.622
1163 2 23.9109 12.6887 31.1342
1164 2 24.4654 13.995 31.8165
1165 2 24.9593 10.6481 30.0136
1166 2 25.6689 11.9974 29.6128
1167 2 30.0164 12.6989 30.2054
1168 2 29.5478 13.7824 31.2855
1169 2 17.943 14.9618 30.7388
1170 2 22.7502 14.6195 32.9622
1171 2 22.9883 14.292 28.6358
1172 2 23.1379 14.3937 30.1897
1173 2 26.7048 13.7822 28.8646
1174 2 27.8659 13.0975 29.6877
1175 2 22.178 14.9996 34.3766
1176 2 25.5946 12.7435 35.0112
1177 2 19.7853 15.3467 34.7147
1178 2 28.0129 12.9354 34.6741
1179 2 19.4748 14.1492 35.672
1180 2 30.0741 11.6605 26.8423
1181 2 30.102 14.2774 24.8787
1182 2 31.2417 11.3232 28.9967
1183 2 30.0782 14.9382 29.7694
1184 2 29.0042 15.4846 32.5086
1185 2 30.9132 10.245 34.5608
1186 2 30.2888 11.6739 34.3788
1187 2 20.5874 16.1566 38.6991
1188 2 20.9122 15.6257 37.2569
1189 2 26.9854 15.0976 37.5119
1190 2 25.4355 15.4391 37.5837
1191 2 24.9087 13.9854 41.0322
1192 2 25.0593 15.045 39.8993
1193 2 26.1096 14.0664 35.7057
1194 2 29.1444 13.5755 33.7835
1195 2 29.7924 13.9554 35.6773
1196 2 27.426 14.128 40.7154
1197 2 25.1291 23.0774 12.9529
1198 2 28.7427 24.2628 13.4444
1199 2 27.4015 29.4316 10.3545
1200 2 25.3381 29.0572 10.7465
1201 2 31.2606 24.9345 10.715
1202 2 26.6439 24.9109 21.9886
1203 2 24.6851 23.863 14.2301
1204 2 27.938 24.3064 22.6652
1205 2 28.3847 25.6017 12.6464
1206 2 24.2572 27.4231 12.1515
1207 2 24.146 26.2984 13.2663
1208 2 27.0906 27.9578 10.7826
1209 2 28.6747 16.9583 15.9631
1210 2 27.8922 15.6512 15.5621
1211 2 21.8302 22.3114 17.6166
1212 2 22.0577 21.4896 16.313
1213 2 25.3381 19.3902 16.3342
1214 2 23.9464 19.0432 16.9169
1215 2 29.1776 19.2549 14.8914
1216 2 28.4296 19.1074 16.2575
1217 2 31.0498 20.6714 17.4752
1218 2 29.7583 20.4565 18.2726
1219 2 19.367 24.5496 16.3945
1220 2 18.7742 24.2321 17.8273
1221 2 23.6073 20.3958 15.2142
1222 2 23.7865 21.8033 14.565
1223 2 24.7903 26.0695 18.0541
1224 2 23.5983 25.0417 17.9252
1225 2 27.0382 22.9426 14.2966
1226 2 28.2812 23.0869 15.2976
1227 2 29.5026 22.5218 17.1599
1228 2 28.6654 23.7602 17.607
1229 2 16.9665 28.6552 16.9374
1230 2 15.9896 29.8739 17.2593
1231 2 20.4157 24.771 14.1252
1232 2 20.6032 25.9796 15.1077
1233 2 19.3614 27.6131 16.1076
1234 2 20.8928 27.7638 16.4178
1235 2 23.8523 25.3275 15.7512
1236 2 22.6856 25.0197 14.7681
1237 2 25.27 28.6715 16.5638
1238 2 24.7543 27.265 16.0534
1239 2 27.3805 27.3861 13.0316
1240 2 26.2485 26.5733 12.3151
1241 2 26.8213 28.1093 15.0447
1242 2 28.4269 27.8586 14.9038
1243 2 23.6059 17.626 20.8922
1244 2 22.307 17.0281 21.5003
1245 2 25.7343 17.4608 20.0492
1246 2 25.7575 16.8341 21.4882
1247 2 29.1149 15.0504 19.7958
1248 2 29.2763 16.1087 20.9721
1249 2 17.2258 19.825 20.5322
1250 2 17.9352 19.2135 19.2705
1251 2 19.4026 20.7044 20.4142
1252 2 19.9779 21.7886 21.4025
1253 2 22.3393 20.251 18.0904
1254 2 22.5236 19.0692 19.1637
1255 2 24.4608 21.6968 20.4998
1256 2 24.0377 20.8514 19.2185
1257 2 26.8408 18.9073 17.8275
1258 2 27.175 20.4209 17.8411
1259 2 28.1093 20.678 20.7104
1260 2 29.3889 20.3786 21.6382
1261 2 16.1168 24.2608 21.1737
1262 2 16.1863 22.6992 20.9696
1263 2 19.3202 22.8591 19.7442
1264 2 18.0376 23.7513 19.9067
1265 2 21.6209 25.3079 21.1508
1266 2 20.4093 24.5587 20.3467
1267 2 22.3759 23.9503 19.4289
1268 2 23.557 23.0193 18.9473
1269 2 24.5723 23.8309 21.5635
1270 2 24.1924 25.3438 21.5675
1271 2 27.6083 22.4463 19.3291
1272 2 26.2537 21.6075 19.3829
1273 2 28.1107 24.4643 20.3007
1274 2 29.3757 23.7285 19.7541
1275 2 16.4911 27.325 19.3103
1276 2 16.0084 26.9432 20.7546
1277 2 15.7255 29.4169 20.528
1278 2 15.056 30.6329 19.7847
1279 2 18.464 27.4207 18.2362
1280 2 17.9646 26.219 17.3349
1281 2 19.3498 28.25 20.1715
1282 2 19.5918 29.1005 18.8786
1283 2 22.7053 27.1116 17.7924
1284 2 21.3572 27.6689 18.4981
1285 2 25.9294 29.2607 20.8624
1286 2 24.4304 28.8792 20.6936
1287 2 25.8313 25.6548 19.8549
1288 2 25.7917 27.2077 19.6692
1289 2 28.7104 27.7077 20.0743
1290 2 27.9595 27.0092 18.9069
1291 2 19.1994 17.9922 23.3296
1292 2 18.6328 18.3651 21.8825
1293 2 23.4111 19.1766 23.4587
1294 2 22.671 19.1201 22.0899
1295 2 26.0518 18.8723 22.1743
1296 2 27.4366 19.2967 22.7043
1297 2 15.9962 20.4545 22.3803
1298 2 14.9619 20.5608 21.2133
1299 2 20.6146 23.6678 22.2319
1300 2 19.3551 23.5629 23.2125
1301 2 25.0309 21.9681 22.8392
1302 2 23.6934 21.2872 22.4447
1303 2 29.1569 22.5371 24.1555
1304 2 27.578 22.4049 24.0624
1305 2 16.7728 25.2985 22.9429
1306 2 15.2423 25.5359 23.0813
1307 2 17.8983 28.774 21.9597
1308 2 19.2466 28.1379 22.4596
1309 2 23.0075 26.1721 23.0988
1310 2 22.861 27.3318 22.0095
1311 2 23.3541 16.3511 23.758
1312 2 19.6367 18.6356 25.3944
1313 2 25.294 18.0415 24.0578
1314 2 17.2336 19.1332 23.5123
1315 2 20.9477 21.9873 23.9276
1316 2 26.1557 20.5045 23.9317
1317 2 17.2151 23.4481 23.9765
1318 2 20.9808 26.7854 22.9888
1319 2 28.0958 24.2484 25.2658
1320 2 14.9442 29.1365 24.0964
1321 2 16.2927 27.5685 23.0611
1322 2 23.846 27.7147 24.5621
1323 2 20.484 29.1107 14.5132
1324 2 23.8593 29.3073 15.0602
1325 2 22.4831 29.9714 14.5083
1326 2 27.5663 30.0911 14.3425
1327 2 13.8057 31.4045 17.6243
1328 2 18.2766 30.2852 17.5544
1329 2 22.5083 29.4895 18.6661
1330 2 26.2038 30.3003 17.6243
1331 2 15.0771 31.2368 22.0953
1332 2 19.7445 31.0915 24.3018
1333 2 22.3375 29.6343 21.7769
1334 2 26.7843 29.7832 22.834
1335 2 30.9143 18.8925 16.3086
1336 2 29.3315 20.4575 12.7481
1337 2 29.7239 26.2978 14.3261
1338 2 29.0928 19.111 19.8966
1339 2 30.8435 22.2526 19.2349
1340 2 30.3424 26.5697 19.1411
1341 2 31.0925 16.774 22.4056
1342 2 29.9336 17.8157 22.5224
1343 2 31.1803 21.3062 22.9425
1344 2 28.2847 26.6911 22.0287
1345 2 30.9749 29.1124 12.2467
1346 2 29.9303 28.5783 17.9716
1347 2 30.0906 30.9687 21.8624
1348 2 28.4261 28.1525 35.3231
1349 2 19.5589 17.0638 25.4012
1350 2 25.3757 27.0439 32.3092
1351 2 24.4114 18.1503 25.3548
1352 2 26.837 26.8208 32.9237
1353 2 28.4084 15.8843 25.1627
1354 2 27.314 16.2657 24.0798
1355 2 16.1779 19.2173 24.693
1356 2 23.8506 28.4142 35.3352
1357 2 21.6373 20.5795 23.7784
1358 2 25.0964 21.3001 24.825
1359 2 23.1929 27.031 33.994
1360 2 29.9106 18.8063 24.6141
1361 2 28.7058 17.9615 24.1848
1362 2 13.5848 24.503 25.2572
1363 2 14.9803 23.9257 24.8665
1364 2 22.1102 27.1257 35.1627
1365 2 17.8186 24.6416 24.7148
1366 2 20.3303 26.7808 24.4108
1367 2 19.8913 27.2072 36.2543
1368 2 24.0938 25.6717 25.3931
1369 2 22.5577 26.1158 25.3215
1370 2 20.1943 28.3495 35.1714
1371 2 26.9118 24.8585 26.1054
1372 2 18.6666 25.4026 34.4734
1373 2 18.1707 26.1726 33.1528
1374 2 13.4521 29.314 24.7523
1375 2 16.6657 28.9142 34.3427
1376 2 17.0034 28.6309 23.9988
1377 2 13.4815 25.2988 35.296
1378 2 21.4301 29.7927 25.7266
1379 2 20.9267 29.0253 24.4501
1380 2 14.9279 25.7294 35.0746
1381 2 23.601 29.1044 25.2353
1382 2 13.6486 27.477 35.9344
1383 2 27.1966 28.5262 24.6729
1384 2 25.6978 29.0163 24.4396
1385 2 17.9005 18.3659 28.6547
1386 2 17.5897 16.9131 29.1059
1387 2 19.9366 16.3215 29.6644
1388 2 21.4731 15.9464 29.4949
1389 2 26.0719 16.0809 27.8458
1390 2 24.8751 15.2774 28.5248
1391 2 29.2577 16.9391 29.5236
1392 2 27.8894 17.3428 28.7786
1393 2 16.354 18.0187 26.9929
1394 2 15.0295 17.7339 26.2242
1395 2 15.2029 19.9458 27.5892
1396 2 14.833 21.3361 28.3161
1397 2 19.7545 20.6713 25.2199
1398 2 18.2262 20.2744 25.0039
1399 2 20.1479 22.3255 28.064
1400 2 19.6978 21.0101 28.7645
1401 2 21.4233 17.2465 27.804
1402 2 21.36 17.6295 26.2754
1403 2 23.3662 18.2587 27.284
1404 2 24.3785 19.1511 28.157
1405 2 27.0517 17.2889 26.3357
1406 2 25.8826 18.053 27.1465
1407 2 27.883 19.2503 27.825
1408 2 27.8149 20.8123 27.6305
1409 2 11.4523 23.8017 26.6353
1410 2 12.1688 25.1408 27.0429
1411 2 16.5645 22.4377 25.7943
1412 2 16.0634 21.5438 24.5976
1413 2 15.332 24.1269 28.7353
1414 2 16.8119 24.343 29.2275
1415 2 18.3087 21.5783 26.791
1416 2 17.8017 22.4551 27.9843
1417 2 19.2423 23.9943 26.97
1418 2 19.7462 24.8566 28.1317
1419 2 23.6361 20.3019 26.2664
1420 2 22.7006 21.2389 25.3537
1421 2 23.6969 22.9032 28.4373
1422 2 23.9221 22.2674 27.0054
1423 2 26.0181 22.2452 27.4982
1424 2 26.662 21.8255 26.1235
1425 2 28.6 24.2231 27.4796
1426 2 28.652 23.1768 28.6729
1427 2 13.2494 26.9225 27.2383
1428 2 11.8941 27.6156 27.0068
1429 2 14.8132 26.2189 25.7936
1430 2 14.6826 27.8059 25.8036
1431 2 17.4458 28.3108 26.9346
1432 2 16.2047 27.4339 27.3065
1433 2 17.7177 26.1437 26.434
1434 2 16.9011 24.9892 27.0454
1435 2 20.1316 27.654 28.4961
1436 2 20.0253 28.9568 27.644
1437 2 20.8953 27.0727 26.6241
1438 2 20.6806 25.4972 26.4616
1439 2 24.2586 27.4766 28.9539
1440 2 23.7058 28.8935 29.4233
1441 2 24.8137 24.2285 26.8562
1442 2 25.2849 25.6265 27.283
1443 2 27.4522 28.4865 28.6354
1444 2 26.5689 29.3918 27.646
1445 2 16.9488 17.2857 31.6229
1446 2 15.919 18.4885 31.5789
1447 2 20.7478 15.9744 32.9404
1448 2 19.5817 16.9906 33.274
1449 2 24.5817 16.6171 31.6533
1450 2 23.7845 16.4597 30.316
1451 2 27.5444 17.2603 32.4707
1452 2 27.9252 16.7885 31.0163
1453 2 14.7847 19.6688 29.8251
1454 2 13.778 18.7133 30.5729
1455 2 13.6177 21.0824 31.1018
1456 2 13.5137 22.2642 32.0951
1457 2 17.8853 20.2746 30.2128
1458 2 17.0966 20.3512 28.8863
1459 2 20.8417 20.1349 31.7424
1460 2 20.891 21.6488 32.2553
1461 2 21.1498 17.9483 30.7877
1462 2 22.417 18.2166 31.6171
1463 2 24.2446 20.8844 30.9762
1464 2 23.5423 21.2374 32.3504
1465 2 25.8065 19.6189 30.087
1466 2 24.5845 18.6662 30.2822
1467 2 27.964 19.0913 30.3963
1468 2 27.3401 19.4353 31.8075
1469 2 13.3832 24.9599 31.8445
1470 2 13.66 25.8235 33.1228
1471 2 13.7144 22.7011 29.6035
1472 2 13.3584 23.2765 28.1374
1473 2 16.8431 23.3721 32.5081
1474 2 16.7687 24.6718 33.3825
1475 2 18.9492 23.7414 30.1073
1476 2 17.8964 22.6787 30.575
1477 2 21.3068 23.9633 30.1374
1478 2 20.8644 24.1748 31.5998
1479 2 22.8199 22.2984 30.3614
1480 2 21.7515 22.0906 29.1966
1481 2 24.7711 23.3616 31.2308
1482 2 25.6369 24.6462 31.559
1483 2 27.5365 21.4601 30.41
1484 2 26.7405 22.8376 30.297
1485 2 27.7329 23.9141 32.8884
1486 2 28.2809 23.1429 31.6347
1487 2 11.8425 26.7863 30.7493
1488 2 11.7403 27.0591 29.2072
1489 2 13.0493 29.2626 31.6835
1490 2 13.3644 27.8592 32.3376
1491 2 14.8865 26.4618 31.1515
1492 2 15.6788 26.1267 29.8299
1493 2 18.5562 27.5812 31.5049
1494 2 17.1601 26.8173 31.2597
1495 2 18.8464 26.2236 29.9467
1496 2 18.1891 26.7597 28.6335
1497 2 19.9181 29.2134 32.2566
1498 2 20.5607 28.2298 31.1528
1499 2 21.3671 26.1299 30.651
1500 2 22.2225 27.2829 29.9041
1501 2 23.5782 28.6134 32.5326
1502 2 22.9935 27.3477 31.7914
1503 2 26.3187 26.5159 29.1911
1504 2 25.2711 25.4075 29.5455
1505 2 27.2023 27.3019 30.8743
1506 2 28.4542 26.7368 30.1198
1507 2 18.3576 16.4948 36.2007
1508 2 18.2659 17.7907 35.3439
1509 2 27.0405 24.6383 35.3812
1510 2 23.606 17.0063 33.6434
1511 2 28.0867 17.5195 36.2914
1512 2 26.8992 16.6068 35.911
1513 2 16.0716 17.8676 35.419
1514 2 15.743 18.0373 33.9141
1515 2 25.4911 23.7184 34.1074
1516 2 16.0621 19.9975 34.5184
1517 2 18.141 18.6859 33.2103
1518 2 19.403 19.2424 34.0567
1519 2 20.4649 21.0236 35.5153
1520 2 20.9342 19.5661 35.7194
1521 2 23.3377 19.4559 33.7877
1522 2 22.0643 20.3479 34.0292
1523 2 26.6668 22.6655 34.3889
1524 2 23.3288 21.3075 35.3362
1525 2 27.1576 18.1778 34.2684
1526 2 25.8476 18.4327 33.4412
1527 2 23.5169 24.9589 34.6324
1528 2 27.1673 20.3338 34.2777
1529 2 13.5282 23.0859 35.2652
1530 2 23.5883 23.4425 35.1165
1531 2 14.8992 23.2929 33.4904
1532 2 14.7929 21.8431 33.9628
1533 2 16.9653 25.5283 36.4159
1534 2 20.7585 23.5059 33.832
1535 2 18.7031 21.259 32.0275
1536 2 17.2199 21.1662 32.6524
1537 2 22.2561 23.521 33.3667
1538 2 19.1258 23.4164 35.6027
1539 2 18.8459 15.9033 31.6086
1540 2 10.7947 29.4785 25.8796
1541 2 14.76 30.9882 25.9794
1542 2 19.0006 29.0976 25.3605
1543 2 22.9148 29.0861 27.3862
1544 2 11.6571 29.0784 30.2605
1545 2 15.2408 28.5628 29.8872
1546 2 19.2774 29.7976 30.0134
1547 2 23.6061 30.5774 31.1532
1548 2 25.2805 31.4383 30.0697
1549 2 12.4674 29.4512 33.998
1550 2 12.1987 29.3804 35.5302
1551 2 14.8902 29.4767 33.0249
1552 2 18.7818 29.3619 34.1808
1553 2 23.7957 30.1827 33.9148
1554 2 27.0912 29.9887 35.6956
1555 2 25.5258 30.1603 35.5848
1556 2 29.6577 19.6736 26.8395
1557 2 30.5803 20.8977 25.2585
1558 2 28.0994 27.9817 26.463
1559 2 31.9705 18.9908 31.3718
1560 2 28.3469 26.3714 34.5182
1561 2 29.7221 20.7715 29.2774
1562 2 29.5035 24.9076 29.5994
1563 2 30.1085 19.3011 35.0188
1564 2 29.9967 30.2552 25.0998
1565 2 18.4945 15.9785 40.2551
1566 2 18.4897 17.3205 39.4381
1567 2 24.2184 16.9666 39.4361
1568 2 23.1908 16.0886 38.5728
1569 2 28.7118 14.8707 39.1117
1570 2 28.778 16.2001 38.23
1571 2 15.6121 21.4464 38.4531
1572 2 16.7322 20.2917 38.4514
1573 2 17.811 18.257 37.6376
1574 2 18.5618 19.2322 38.6466
1575 2 19.5497 20.9968 39.7031
1576 2 20.4046 19.7012 39.8659
1577 2 22.645 18.5873 36.7685
1578 2 21.3975 17.8582 37.3235
1579 2 24.6822 19.9902 40.6847
1580 2 23.9712 21.0612 41.6046
1581 2 24.4672 17.4711 37.2935
1582 2 24.9045 18.9125 36.7639
1583 2 27.2762 19.8672 40.1469
1584 2 27.7394 20.5418 38.8063
1585 2 13.2333 21.7291 38.7243
1586 2 13.7317 22.7804 37.6898
1587 2 15.4859 24.3451 40.7879
1588 2 14.2579 23.615 40.1609
1589 2 17.2909 22.1108 36.9298
1590 2 16.8908 23.396 36.1238
1591 2 20.3687 24.2293 39.2472
1592 2 19.0673 23.3822 39.1293
1593 2 20.6131 22.676 37.6793
1594 2 20.7946 21.141 37.885
1595 2 24.4529 24.0987 39.2706
1596 2 23.0617 24.6761 39.7885
1597 2 25.8577 20.449 37.9517
1598 2 24.8133 21.1106 36.8832
1599 2 29.5923 23.5175 40.7033
1600 2 29.3373 24.5604 39.5316
1601 2 15.4524 26.4652 38.7539
1602 2 14.3175 25.472 39.0696
1603 2 16.8821 27.7344 39.7527
1604 2 17.3186 26.2609 40.1368
1605 2 19.0237 25.4053 37.6049
1606 2 18.1502 26.641 37.9471
1607 2 21.8107 27.7516 39.1921
1608 2 21.2604 26.5835 38.2623
1609 2 22.5241 24.805 37.7103
1610 2 22.3929 25.5895 36.3752
1611 2 23.7574 28.5244 39.5333
1612 2 22.7542 29.4823 40.3447
1613 2 24.534 26.3308 39.3687
1614 2 25.3246 27.1526 40.4735
1615 2 27.5273 28.0599 41.4241
1616 2 28.2098 28.3941 40.0767
1617 2 27.4361 16.9104 42.1238
1618 2 26.2466 15.9512 41.6967
1619 2 19.8592 20.0956 42.1943
1620 2 19.1538 21.4611 41.8535
1621 2 21.2739 18.2793 41.8766
1622 2 20.023 17.7909 41.0132
1623 2 23.5013 18.0428 43.4805
1624 2 22.8435 19.3567 42.9191
1625 2 25.3589 17.7906 41.0602
1626 2 23.8655 18.1465 41.3354
1627 2 27.5114 19.7567 42.5755
1628 2 26.444 20.7068 41.8422
1629 2 17.7207 23.1092 40.8606
1630 2 17.4363 21.943 39.8043
1631 2 20.0514 24.0737 43.4644
1632 2 19.8858 25.6312 43.3936
1633 2 21.6871 21.2741 42.5324
1634 2 22.7851 21.6058 43.6142
1635 2 26.2759 23.163 44.5696
1636 2 26.6367 24.2105 43.4183
1637 2 26.4392 22.7484 39.1019
1638 2 25.3979 22.178 40.1557
1639 2 27.9058 24.5998 41.4106
1640 2 26.5013 23.9904 41.0956
1641 2 14.1671 26.1238 41.7373
1642 2 13.4307 26.9398 42.8409
1643 2 17.3711 27.7644 42.6588
1644 2 16.0185 27.1192 43.1696
1645 2 18.5066 24.8601 41.8217
1646 2 17.1871 25.5401 42.1694
1647 2 22.4029 27.9435 43.7729
1648 2 20.827 27.9473 43.9875
1649 2 21.0121 24.8342 41.4212
1650 2 21.2766 25.8028 40.1959
1651 2 23.9979 26.5431 44.4699
1652 2 24.5169 28.0575 44.5429
1653 2 26.3448 26.1376 42.0467
1654 2 25.3605 27.1931 42.759
1655 2 27.4565 27.5858 43.5547
1656 2 27.8103 27.2574 45.0314
1657 2 25.598 17.1973 43.5984
1658 2 25.0435 16.8905 45.0335
1659 2 20.985 22.6906 44.9019
1660 2 19.8678 22.0613 44.0191
1661 2 27.7533 27.2536 47.8035
1662 2 23.2317 23.3973 45.3377
1663 2 26.2436 21.4046 45.91
1664 2 24.8552 21.6443 45.221
1665 2 27.7245 23.2074 46.8096
1666 2 19.182 26.2667 45.5303
1667 2 18.3148 26.93 44.3923
1668 2 24.1646 25.2395 46.1372
1669 2 24.7902 24.6424 44.8232
1670 2 27.0399 25.2529 45.5255
1671 2 25.7617 25.9889 47.326
1672 2 28.3776 25.6362 46.2619
1673 2 29.1078 28.6952 36.7277
1674 2 23.3023 29.6831 36.056
1675 2 17.4809 27.5566 34.6954
1676 2 13.6465 27.3361 37.4598
1677 2 24.2139 17.7856 34.8611
1678 2 26.8131 25.8928 36.3222
1679 2 16.7263 21.4192 34.9089
1680 2 22.5929 21.8983 36.6116
1681 2 26.853 20.9074 35.6969
1682 2 12.16 23.3024 36.001
1683 2 15.5638 25.2266 37.0659
1684 2 20.4058 24.2789 35.918
1685 2 14.5162 30.6531 38.277
1686 2 19.748 28.3407 39.1579
1687 2 21.4281 29.0801 36.8515
1688 2 26.3169 27.9689 38.7587
1689 2 14.8326 28.686 41.1642
1690 2 18.505 29.08 40.9675
1691 2 21.8914 29.7166 42.4534
1692 2 26.4883 30.1659 39.229
1693 2 25.6463 30.5853 40.4779
1694 2 20.0104 29.942 46.1957
1695 2 19.1029 28.7679 45.7639
1696 2 21.9434 29.5093 45.252
1697 2 26.5699 29.0678 44.766
1698 2 28.2436 18.541 38.5023
1699 2 28.6477 24.8732 37.1321
1700 2 29.271 15.69 41.8876
1701 2 28.759 21.3865 41.2714
1702 2 29.8221 27.3041 41.7352
1703 2 28.3954 19.4745 44.4016
1704 2 28.7676 21.7847 45.1358
1705 2 30.5119 26.2274 46.4882
1706 2 28.7303 30.0198 41.4367
1707 2 29.7154 28.5706 44.15
1708 2 22.7497 22.2364 46.3052
1709 2 28.9052 22.4691 47.4445
1710 2 28.2336 26.8652 49.2368
1711 2 24.4619 26.8101 47.6864
1712 2 26.7069 28.8142 49.0162
1713 2 28.5662 25.1093 50.7875
1714 2 30.9278 28.9315 49.3955
1715 2 23.8153 29.4447 10.5234
1716 2 27.9495 33.9914 13.9362
1717 2 29.8629 33.7885 12.3803
1718 2 29.1142 30.4924 11.5351
1719 2 24.8664 30.8558 12.2446
1720 2 24.3384 30.9666 13.6916
1721 2 24.3133 40.6907 21.3266
1722 2 28.3205 32.4662 13.8604
1723 2 23.4718 36.1125 12.8223
1724 2 22.2391 36.92 13.3315
1725 2 28.0446 37.719 13.5927
1726 2 26.9751 36.6069 13.455
1727 2 16.7984 31.1486 15.5594
1728 2 16.7926 32.6224 16.058
1729 2 20.3371 30.6174 14.028
1730 2 25.4555 39.6007 21.6244
1731 2 20.0752 31.7718 17.2677
1732 2 21.4642 32.4181 16.826
1733 2 22.5735 41.7045 23.1431
1734 2 23.9214 32.461 17.0972
1735 2 23.3518 31.3012 16.1414
1736 2 21.8065 42.7768 24.0178
1737 2 26.52 31.1777 13.8679
1738 2 28.1474 31.7753 17.6029
1739 2 27.4449 31.4635 16.1575
1740 2 19.892 32.468 15.1689
1741 2 18.4934 32.141 14.5955
1742 2 18.1462 34.8455 13.1703
1743 2 19.2609 33.7861 13.4352
1744 2 23.593 34.101 14.1924
1745 2 24.3072 33.1577 13.1305
1746 2 23.4658 35.8189 15.7689
1747 2 22.8083 34.7929 16.7207
1748 2 25.7209 34.6357 13.8301
1749 2 26.3786 35.2193 15.1308
1750 2 29.2708 35.8373 17.1817
1751 2 27.7386 36.1417 16.8752
1752 2 19.7548 37.3814 15.7898
1753 2 20.27 37.6799 17.207
1754 2 21.2919 35.8822 14.9918
1755 2 20.0952 35.8452 13.9676
1756 2 23.5316 37.993 17.436
1757 2 24.5347 38.2338 16.1973
1758 2 25.785 38.2321 14.1077
1759 2 24.2441 38.1748 13.9541
1760 2 26.3645 40.1965 15.1264
1761 2 27.5286 40.0959 16.1634
1762 2 26.0446 42.656 15.951
1763 2 24.9596 43.3253 16.8523
1764 2 27.7711 43.5412 18.0603
1765 2 26.8885 44.4726 17.2347
1766 2 15.1237 32.2054 17.8911
1767 2 17.7691 42.7158 22.5039
1768 2 18.1644 32.5219 20.5347
1769 2 16.9077 31.5153 20.2904
1770 2 19.0839 42.0698 22.9997
1771 2 18.5677 31.1563 18.814
1772 2 21.1796 30.5191 20.351
1773 2 20.1307 30.0991 21.4743
1774 2 22.6818 30.9545 18.2161
1775 2 23.5854 33.0673 21.0708
1776 2 23.3547 31.8522 20.0713
1777 2 25.4274 37.4433 21.268
1778 2 25.3835 29.4137 18.6657
1779 2 27.9801 31.1947 21.6018
1780 2 28.8061 32.0808 20.5232
1781 2 16.9333 33.1289 18.5173
1782 2 16.7517 34.4542 17.7043
1783 2 17.2509 36.8281 19.5834
1784 2 17.1911 36.471 21.1362
1785 2 20.1247 33.8205 18.0132
1786 2 19.925 34.0141 19.5767
1787 2 22.6975 36.3055 20.9202
1788 2 21.2238 36.0686 21.5131
1789 2 23.0041 34.0142 19.0223
1790 2 21.8407 34.9795 18.7084
1791 2 25.0971 35.4499 20.6306
1792 2 24.0708 35.8618 19.4974
1793 2 26.1048 32.6754 17.6198
1794 2 25.0872 33.0696 18.7862
1795 2 29.3997 34.7211 21.2721
1796 2 28.1655 34.9537 20.3957
1797 2 15.9034 40.0827 22.4915
1798 2 17.4222 40.2846 22.3804
1799 2 18.2346 36.6386 17.485
1800 2 18.6098 35.4394 18.3811
1801 2 19.3256 39.902 19.5406
1802 2 19.4368 39.7532 17.9737
1803 2 21.3862 38.7815 18.6088
1804 2 21.7744 37.3498 19.0917
1805 2 22.1059 40.3157 21.5379
1806 2 22.3236 41.6425 20.723
1807 2 25.7115 34.8763 17.3238
1808 2 25.458 36.4467 17.0838
1809 2 25.0963 39.6033 17.9657
1810 2 25.3646 40.239 19.3892
1811 2 20.6663 44.9701 20.8693
1812 2 19.5243 43.9208 21.1278
1813 2 20.915 43.0895 19.6938
1814 2 20.8663 41.6166 19.0573
1815 2 24.2452 43.7926 20.1872
1816 2 23.569 44.7579 21.27
1817 2 23.0803 42.705 18.6335
1818 2 24.4513 41.9487 18.5044
1819 2 26.4498 41.6774 21.1261
1820 2 27.1465 43.1538 20.9996
1821 2 26.6449 37.5879 22.2653
1822 2 14.5391 31.2182 23.5584
1823 2 21.4438 38.8541 22.8093
1824 2 18.6336 32.2117 23.9582
1825 2 23.4223 29.093 22.8414
1826 2 21.4017 38.1398 21.4289
1827 2 26.1313 31.0569 22.192
1828 2 17.3116 34.5605 22.7698
1829 2 16.7544 35.9511 23.1545
1830 2 20.1452 32.4478 21.4443
1831 2 19.8078 33.9475 21.803
1832 2 23.6729 34.6729 22.9728
1833 2 22.6987 33.5453 23.4533
1834 2 26.3526 33.792 21.6961
1835 2 26.775 35.2385 22.0585
1836 2 15.6716 38.001 21.1791
1837 2 14.1822 38.5028 21.268
1838 2 18.0559 38.6288 20.8832
1839 2 19.3591 39.2647 21.5456
1840 2 14.8947 34.8307 25.0438
1841 2 16.2934 32.5629 23.4734
1842 2 27.9866 31.6738 25.1369
1843 2 15.0947 37.3493 23.3532
1844 2 17.9699 36.5554 25.6528
1845 2 28.3514 35.4636 23.3909
1846 2 16.4555 40.5773 24.6197
1847 2 20.6551 40.9496 23.9646
1848 2 25.4227 38.9034 25.0486
1849 2 28.7444 39.9924 23.7833
1850 2 19.8778 43.9298 23.5782
1851 2 23.9886 43.5014 26.3278
1852 2 27.13 43.3319 24.227
1853 2 28.7746 41.9714 23.5091
1854 2 30.1121 33.4013 14.825
1855 2 29.8663 38.6267 14.6968
1856 2 29.1009 40.6232 14.5336
1857 2 30.971 29.7216 18.2962
1858 2 30.3829 36.1783 20.0737
1859 2 28.4946 38.1614 17.3842
1860 2 27.3842 41.1953 18.1556
1861 2 27.903 41.8972 19.4353
1862 2 29.0137 33.2437 22.6177
1863 2 15.2335 34.8515 26.5582
1864 2 27.037 43.26 35.4479
1865 2 16.7007 33.5055 24.6579
1866 2 23.6516 41.9268 34.951
1867 2 25.1352 41.4232 34.8213
1868 2 21.5757 33.5225 25.5049
1869 2 20.7155 32.9044 24.3047
1870 2 26.3167 32.5028 23.7359
1871 2 24.9183 32.9331 23.0285
1872 2 27.3774 32.9525 25.7486
1873 2 22.1353 43.2643 36.59
1874 2 15.7865 37.2913 24.7651
1875 2 21.5732 42.7231 34.3712
1876 2 18.7011 35.1596 25.8499
1877 2 21.0905 42.1092 32.992
1878 2 20.6542 34.9156 23.5749
1879 2 19.3365 35.6276 23.0772
1880 2 18.6832 43.4612 37.5562
1881 2 24.7873 36.8149 23.231
1882 2 24.4347 36.1551 24.6396
1883 2 27.385 36.4457 24.2144
1884 2 16.3574 39.6029 25.8773
1885 2 16.3788 41.893 34.2843
1886 2 17.9564 41.8699 34.1902
1887 2 19.4224 41.0295 24.8931
1888 2 14.0615 41.0901 34.5715
1889 2 23.9392 39.3627 24.7073
1890 2 14.9489 40.1993 33.6277
1891 2 29.0056 40.0365 25.3234
1892 2 27.1963 41.0878 36.2058
1893 2 20.517 44.5729 24.8802
1894 2 25.8669 38.6681 33.8069
1895 2 25.043 44.7099 26.3923
1896 2 27.0967 38.1534 34.7272
1897 2 27.3642 42.3768 25.4422
1898 2 25.2169 39.0322 36.0879
1899 2 11.9544 30.0449 26.7747
1900 2 13.4672 31.3907 27.6348
1901 2 12.1638 32.0569 28.2216
1902 2 14.9067 32.5504 26.2757
1903 2 17.9618 30.9188 27.9116
1904 2 16.6535 31.4041 27.1126
1905 2 21.5765 39.6604 33.634
1906 2 17.8407 29.9972 25.8667
1907 2 22.7181 40.0016 34.6462
1908 2 21.3448 32.5823 30.106
1909 2 20.4765 31.4756 29.3939
1910 2 20.3151 40.6934 34.9694
1911 2 23.78 30.2693 26.8122
1912 2 24.921 33.814 28.5048
1913 2 23.7269 33.3488 27.5618
1914 2 25.3163 31.7373 27.3734
1915 2 25.962 31.0107 26.179
1916 2 27.5557 31.5587 29.1998
1917 2 28.172 30.7682 27.9977
1918 2 12.7344 36.8187 29.506
1919 2 12.2489 35.5159 28.7899
1920 2 15.4857 35.8604 28.6792
1921 2 14.1713 36.2775 27.9636
1922 2 15.5812 34.8103 30.7709
1923 2 16.6528 36.0086 30.6481
1924 2 19.1095 34.0371 27.7499
1925 2 18.3948 32.9568 26.8417
1926 2 20.3754 34.6293 29.72
1927 2 18.9763 34.1042 30.0607
1928 2 21.8852 34.4106 27.5658
1929 2 21.6344 32.8887 27.9235
1930 2 22.2629 36.9674 28.4579
1931 2 23.2487 36.2278 27.4126
1932 2 24.7553 34.8765 26.6588
1933 2 25.5266 36.192 26.7725
1934 2 27.3624 35.2336 27.69
1935 2 26.3992 35.705 28.8131
1936 2 17.5276 38.169 27.0696
1937 2 16.1667 37.316 27.0777
1938 2 19.7277 38.4559 27.0185
1939 2 19.0841 39.8154 27.4724
1940 2 20.016 36.8861 25.6366
1941 2 21.2971 36.9901 26.5978
1942 2 21.788 39.533 29.4367
1943 2 20.5912 38.6423 28.9442
1944 2 22.9118 37.6568 23.9642
1945 2 21.7613 38.1972 24.8782
1946 2 23.0667 39.0429 27.8443
1947 2 24.2355 39.4085 26.8507
1948 2 26.9998 37.8622 26.4138
1949 2 27.5993 38.3874 25.0767
1950 2 28.3563 39.5411 28.1455
1951 2 27.1053 39.2114 29.0068
1952 2 15.7431 41.6457 26.8781
1953 2 14.7101 42.5027 27.6942
1954 2 18.4208 44.0192 28.9662
1955 2 17.2663 43.4469 28.0624
1956 2 18.7723 42.2247 27.1124
1957 2 17.885 41.1955 26.3089
1958 2 21.9717 42.8545 27.6851
1959 2 20.7755 43.8002 27.9773
1960 2 23.3036 41.1239 27.098
1961 2 22.8342 41.7893 25.7104
1962 2 24.5446 43.2199 29.2229
1963 2 25.2233 42.161 28.2493
1964 2 26.7167 40.8284 27.1301
1965 2 25.6268 41.073 26.0432
1966 2 29.1287 44.6149 27.5303
1967 2 28.2955 44.4139 28.8555
1968 2 18.7532 39.2152 35.0465
1969 2 12.4276 30.2582 29.5328
1970 2 12.0125 31.5283 31.2493
1971 2 11.7383 32.5626 32.4055
1972 2 18.7668 37.8573 35.8845
1973 2 16.0291 29.1422 28.7182
1974 2 16.0404 30.516 30.3829
1975 2 16.3459 30.6983 31.9263
1976 2 18.1484 30.8304 30.0551
1977 2 22.521 33.5217 34.0803
1978 2 21.3821 32.4828 34.4352
1979 2 15.5844 39.8323 36.1612
1980 2 15.6646 37.1774 33.836
1981 2 22.8869 31.0106 29.816
1982 2 26.4142 31.2162 33.9774
1983 2 25.2706 31.3544 32.9556
1984 2 26.3075 31.6852 31.229
1985 2 17.1775 37.6524 34.0715
1986 2 28.072 31.1782 32.4237
1987 2 29.3612 30.5032 31.7868
1988 2 11.7241 33.4001 30.0046
1989 2 10.6282 33.8315 28.9773
1990 2 13.9738 35.9146 34.5037
1991 2 13.5679 36.8193 33.274
1992 2 15.3933 32.5371 31.3511
1993 2 13.9657 33.145 31.6029
1994 2 16.9258 35.5056 33.294
1995 2 16.1244 34.1894 33.0324
1996 2 17.9851 33.8302 32.0778
1997 2 17.7157 32.5561 31.2119
1998 2 20.5254 35.2787 32.1628
1999 2 19.9014 35.8244 33.5074
2000 2 22.3875 34.3343 31.3816
2001 2 21.506 33.3365 32.1838
2002 2 23.7363 35.202 32.806
2003 2 23.3742 36.2216 31.6685
2004 2 24.9222 34.8247 30.766
2005 2 25.8908 33.6171 30.2825
2006 2 28.3377 35.9448 31.5516
2007 2 26.8693 35.6459 31.0554
2008 2 13.8875 38.1054 31.413
2009 2 14.3369 36.6974 30.9587
2010 2 15.5434 39.9594 31.4006
2011 2 15.8393 38.7197 32.351
2012 2 18.8315 36.5698 31.5327
2013 2 18.7152 36.2726 30.0242
2014 2 20.0235 40.2452 31.7959
2015 2 21.4883 40.7132 31.4476
2016 2 21.632 37.2745 32.2556
2017 2 21.9951 38.0037 30.9128
2018 2 23.8383 38.7208 32.2773
2019 2 24.4363 40.0325 32.9254
2020 2 27.2011 37.9918 31.1529
2021 2 26.1271 39.1116 31.3008
2022 2 28.1693 40.2658 31.1928
2023 2 28.9695 41.1359 32.2525
2024 2 16.0624 41.2408 29.3311
2025 2 16.44 41.9485 30.6851
2026 2 16.8221 43.0778 32.4121
2027 2 17.2927 43.9862 31.2225
2028 2 18.5227 38.6978 30.775
2029 2 17.9238 40.1506 30.6071
2030 2 20.4853 44.3939 33.1501
2031 2 19.2859 45.2191 33.734
2032 2 21.8869 41.8948 29.5213
2033 2 23.3161 41.2924 29.7097
2034 2 22.9331 43.7425 32.6914
2035 2 23.4865 44.5341 31.4204
2036 2 27.9921 42.4363 30.4591
2037 2 26.6555 42.8735 29.7359
2038 2 27.7356 44.6058 31.0002
2039 2 27.3112 45.4281 32.2626
2040 2 28.4795 36.3448 35.3038
2041 2 13.4224 31.2097 34.9475
2042 2 27.1206 34.8744 33.0014
2043 2 26.8256 33.3449 33.353
2044 2 15.2888 30.6446 33.9841
2045 2 16.4665 29.8081 37.4919
2046 2 19.8622 30.4732 34.4476
2047 2 24.1064 37.6982 37.6624
2048 2 20.8403 31.1472 36.3149
2049 2 22.8502 35.7185 34.8396
2050 2 23.0313 31.3963 33.2782
2051 2 24.1832 34.8404 35.015
2052 2 26.2263 34.4564 35.1975
2053 2 21.9111 37.8186 35.3114
2054 2 18.7836 35.2593 35.528
2055 2 26.9917 31.9538 36.8279
2056 2 20.2446 35.8752 35.6011
2057 2 16.8872 35.3815 37.2159
2058 2 13.9683 35.0674 37.1214
2059 2 15.5025 34.4961 35.6243
2060 2 14.3748 33.442 35.3071
2061 2 19.2396 45.1272 31.4734
2062 2 28.6759 41.4093 34.428
2063 2 28.2492 33.0376 27.683
2064 2 30.4043 38.7889 24.3442
2065 2 29.8472 41.9643 26.8087
2066 2 29.4384 30.3453 29.5895
2067 2 30.3282 37.2355 34.3488
2068 2 31.059 34.5805 27.7122
2069 2 28.5204 36.7117 28.7338
2070 2 30.4017 41.0848 30.5486
2071 2 28.9499 34.1325 34.2472
2072 2 26.4334 40.5666 44.8303
2073 2 14.2285 29.4375 37.2519
2074 2 14.4897 32.6599 39.988
2075 2 15.8356 32.0608 39.3493
2076 2 27.9204 41.0974 44.7811
2077 2 18.5524 29.2629 38.6455
2078 2 20.2808 30.6545 39.5919
2079 2 21.1663 31.9241 39.1997
2080 2 22.2818 29.7641 37.9886
2081 2 26.0384 37.5703 45.0713
2082 2 25.0563 31.9009 38.5042
2083 2 23.7222 32.5993 37.9481
2084 2 26.9842 38.5974 45.7961
2085 2 27.3833 28.5132 37.6752
2086 2 29.1079 31.5651 39.9798
2087 2 28.7036 32.0031 38.4364
2088 2 13.7799 34.5241 39.3796
2089 2 14.3341 34.5173 40.8677
2090 2 15.9398 36.0861 41.6946
2091 2 16.0458 34.5849 42.1864
2092 2 18.3162 32.594 38.3128
2093 2 17.8462 31.4719 37.2906
2094 2 19.5394 34.5106 39.395
2095 2 20.4928 35.6697 39.8403
2096 2 21.5227 33.0245 37.1166
2097 2 21.412 33.9328 38.3855
2098 2 25.0884 34.3199 41.7337
2099 2 23.5164 34.329 41.8436
2100 2 24.9822 34.0743 38.5892
2101 2 24.6714 34.9129 39.8888
2102 2 26.5904 35.6142 39.2614
2103 2 28.1808 35.4751 39.475
2104 2 16.0999 37.9432 37.7707
2105 2 16.3405 37.3207 39.21
2106 2 15.9202 38.3917 41.24
2107 2 17.4704 38.1349 41.1305
2108 2 18.1673 37.1583 37.9407
2109 2 19.5476 36.4394 38.0975
2110 2 19.8615 39.6589 39.6743
2111 2 19.6906 38.7536 38.402
2112 2 23.8321 36.7624 41.123
2113 2 23.3634 37.2641 39.7048
2114 2 24.1831 40.7201 40.9228
2115 2 23.5794 39.2682 40.6106
2116 2 27.9132 38.8765 37.9564
2117 2 27.9259 37.3617 38.5192
2118 2 30.9055 39.3223 39.5239
2119 2 29.7662 38.3075 38.9961
2120 2 18.9177 40.9289 38.0776
2121 2 17.5103 41.1005 37.4126
2122 2 21.3556 43.0466 40.582
2123 2 20.8585 44.5484 40.6592
2124 2 22.9645 40.4839 38.6568
2125 2 21.578 40.0902 38.0724
2126 2 24.8451 44.4487 40.9111
2127 2 23.267 44.2437 41.0718
2128 2 27.3644 41.0825 38.4945
2129 2 26.1882 40.1526 37.8263
2130 2 28.4774 41.7932 40.3024
2131 2 27.554 42.9771 39.7164
2132 2 22.5758 38.5661 45.2514
2133 2 15.1608 30.0996 40.4705
2134 2 18.4378 30.5614 44.5816
2135 2 18.3092 30.3949 43.0187
2136 2 23.4514 38.3771 43.9878
2137 2 17.0369 29.34 41.4274
2138 2 22.3035 31.8107 45.4277
2139 2 21.2372 32.8959 45.091
2140 2 21.7653 30.9404 41.4296
2141 2 25.2303 30.3281 43.2718
2142 2 24.0111 30.6716 42.3107
2143 2 27.8641 36.435 46.3059
2144 2 29.3862 36.0338 46.2888
2145 2 28.1882 31.5423 43.2515
2146 2 27.2009 31.0943 44.3521
2147 2 17.156 32.194 42.7478
2148 2 16.1309 32.2777 41.5444
2149 2 19.3481 32.5108 40.1369
2150 2 17.9721 33.05 40.74
2151 2 21.3506 35.5863 44.1987
2152 2 20.0028 34.8038 43.9606
2153 2 22.3689 32.905 43.1332
2154 2 21.5445 34.0388 42.5191
2155 2 25.4159 37.091 42.9876
2156 2 24.3627 36.3628 43.9153
2157 2 25.7731 32.1817 42.1314
2158 2 26.638 32.5863 40.9173
2159 2 27.2014 33.8442 42.864
2160 2 26.9965 34.3407 44.3267
2161 2 19.6418 37.9693 41.2652
2162 2 19.3284 39.2568 42.0857
2163 2 21.2997 39.6939 43.7248
2164 2 20.0888 40.6069 44.1347
2165 2 21.6918 37.0075 41.0901
2166 2 20.6955 36.2378 42.0747
2167 2 24.8471 41.3996 43.7446
2168 2 24.1276 40.3992 44.7061
2169 2 27.2568 36.0023 42.6659
2170 2 27.1446 36.5798 41.1904
2171 2 28.0992 39.2998 43.6807
2172 2 28.0397 38.0521 42.6769
2173 2 21.9908 40.9998 40.7645
2174 2 20.9058 41.2032 41.866
2175 2 24.6575 42.7324 41.8463
2176 2 25.9965 41.8905 41.8105
2177 2 29.3019 44.8859 41.7029
2178 2 28.3879 44.1904 42.7508
2179 2 25.7975 33.0038 45.9987
2180 2 22.5907 29.6696 46.6781
2181 2 25.4678 34.528 46.1351
2182 2 24.4253 28.9677 48.4066
2183 2 23.0044 28.3797 48.6764
2184 2 25.8541 30.1552 45.6674
2185 2 26.1955 30.8471 47.765
2186 2 27.2342 31.7395 46.9881
2187 2 19.0273 32.5468 44.2898
2188 2 18.8304 33.4178 45.5829
2189 2 23.3649 35.6817 45.9411
2190 2 22.9675 34.4281 45.1117
2191 2 25.4583 36.7279 46.9695
2192 2 26.6709 44.5746 36.299
2193 2 22.3062 41.7044 36.6867
2194 2 19.838 44.5235 37.4779
2195 2 26.8853 40.3911 34.875
2196 2 23.9678 39.6126 36.9187
2197 2 19.1344 41.1647 35.9145
2198 2 16.9495 39.1168 36.2529
2199 2 28.6546 37.553 36.2749
2200 2 14.543 31.2759 35.9994
2201 2 17.5105 29.2121 36.4874
2202 2 19.598 32.1368 36.2338
2203 2 24.0786 36.1818 38.1095
2204 2 25.5311 33.8369 36.4637
2205 2 22.4204 36.9649 36.5534
2206 2 28.3934 32.3419 36.3565
2207 2 14.6327 36.1176 38.0575
2208 2 17.4075 33.927 36.8015
2209 2 29.9736 30.1213 38.4601
2210 2 29.19 42.0516 43.1019
2211 2 29.5643 33.6443 39.2628
2212 2 29.7898 38.4477 44.6383
2213 2 31.3903 37.9354 37.8666
2214 2 29.7126 42.7602 38.7451
2215 2 29.21 34.1487 43.7008
2216 2 30.9333 37.8557 41.051
2217 2 29.1303 40.0805 41.9921
2218 2 28.6273 32.5316 45.6185
2219 2 26.0476 29.8464 50.0058
2220 2 25.0769 35.8102 48.1788
2221 2 29.5346 28.6364 48.6897
2222 2 28.8177 35.4551 48.5817
2223 2 27.2945 44.8873 19.6776
2224 2 26.1745 45.0036 20.7751
2225 2 21.7038 45.1602 22.8195
2226 2 22.6317 46.3683 22.4866
2227 2 24.9253 43.9845 24.2392
2228 2 25.1308 43.931 22.657
2229 2 24.5612 47.3998 23.7021
2230 2 27.4966 46.5012 23.8192
2231 2 29.4677 44.8553 17.3508
2232 2 28.4465 45.5938 21.9103
2233 2 23.2482 47.3841 24.5363
2234 2 28.3915 47.1302 36.5446
2235 2 26.2175 45.6611 23.9133
2236 2 20.9699 45.8128 26.5727
2237 2 19.443 45.3862 26.8782
2238 2 23.1083 45.7683 26.1166
2239 2 23.0514 46.9772 27.0751
2240 2 24.5538 47.6681 29.1974
2241 2 25.1212 46.7653 28.0018
2242 2 26.5492 46.2874 26.0437
2243 2 27.1527 45.6654 27.3838
2244 2 28.7532 48.0384 29.1813
2245 2 29.2277 46.778 28.4214
2246 2 25.1598 44.9581 33.0014
2247 2 18.3383 45.955 30.5014
2248 2 22.6782 44.3679 29.2448
2249 2 23.767 45.537 29.2925
2250 2 23.7278 47.664 33.3383
2251 2 25.1988 47.1816 33.2679
2252 2 27.7913 47.0525 30.8967
2253 2 26.8726 48.3163 30.6194
2254 2 28.8558 47.7924 33.7187
2255 2 28.6825 48.5052 32.3273
2256 2 24.9099 49.6772 30.5292
2257 2 24.8325 48.4544 31.5389
2258 2 18.3685 44.8742 35.8268
2259 2 17.6326 44.1557 34.6552
2260 2 21.5026 46.2702 33.7692
2261 2 22.881 45.7039 33.3924
2262 2 26.2643 45.0146 34.1359
2263 2 23.0981 46.4562 35.6172
2264 2 23.2943 47.4485 36.8107
2265 2 30.8757 48.6276 33.4441
2266 2 29.2963 43.6635 25.6141
2267 2 29.9282 48.5185 26.8131
2268 2 29.8475 45.2485 31.4549
2269 2 28.5389 45.4874 35.0511
2270 2 22.2816 45.3183 37.3867
2271 2 21.7793 44.388 38.5978
2272 2 25.1947 45.9683 37.3219
2273 2 26.7366 46.3379 37.5953
2274 2 27.1471 44.7582 40.7007
2275 2 26.3987 44.8909 39.2528
2276 2 28.8406 47.0934 38.0249
2277 2 30.8971 46.1412 39.3988
2278 2 31.6501 44.5189 41.6421
2279 2 30.8716 14.7956 18.2349
2280 2 37.881 15.9759 22.774
2281 2 33.1132 15.0198 18.8316
2282 2 32.2871 16.3678 18.8102
2283 2 38.9532 16.2402 21.6338
2284 2 31.4572 14.7095 23.1883
2285 2 33.933 13.4701 20.7845
2286 2 34.4822 13.1038 19.3562
2287 2 32.571 13.1195 22.6765
2288 2 33.6606 11.9963 22.6727
2289 2 39.2974 14.6973 34.7455
2290 2 40.0543 15.7515 35.6434
2291 2 38.1842 15.0598 24.9826
2292 2 36.8008 14.5773 24.3887
2293 2 30.9287 10.3717 26.6982
2294 2 37.2996 13.6792 35.3082
2295 2 32.7881 11.9177 26.3546
2296 2 34.1878 11.9135 27.0547
2297 2 35.1786 11.7473 29.474
2298 2 36.1113 12.468 28.4479
2299 2 36.9827 14.6704 34.1331
2300 2 30.4512 15.0079 26.2276
2301 2 34.5725 13.2491 25.3064
2302 2 34.5361 13.866 23.8818
2303 2 39.8185 14.8434 27.1276
2304 2 38.4753 15.6517 27.1544
2305 2 40.5175 14.8082 29.2619
2306 2 40.9574 13.3962 28.7264
2307 2 33.1694 13.9648 34.1072
2308 2 34.3702 14.4887 33.2486
2309 2 31.8002 11.4808 30.5007
2310 2 32.2929 11.3401 32.8089
2311 2 33.1107 12.6074 32.4094
2312 2 34.3165 11.1131 31.5251
2313 2 35.3504 9.97672 31.1261
2314 2 36.5989 12.0809 31.6677
2315 2 37.4172 12.9436 32.7206
2316 2 31.2629 15.8841 30.2087
2317 2 30.4132 15.3089 33.1825
2318 2 34.2851 13.9926 28.6567
2319 2 33.5979 15.1601 29.4515
2320 2 36.7182 15.4174 29.8827
2321 2 36.984 14.3309 31.0499
2322 2 42.8343 14.9839 28.7638
2323 2 43.1978 15.9477 29.9176
2324 2 35.8633 13.5365 37.4795
2325 2 31.8544 13.7295 36.029
2326 2 32.3644 12.3718 35.4522
2327 2 32.3162 15.7237 39.9928
2328 2 29.8523 14.7631 37.0268
2329 2 33.6693 13.5207 37.2435
2330 2 34.3113 14.8705 37.6813
2331 2 37.6788 16.2572 38.7616
2332 2 37.303 15.2504 37.5991
2333 2 33.3565 14.6055 39.6393
2334 2 28.6785 13.1932 40.8075
2335 2 37.2466 12.8095 37.6804
2336 2 30.5526 25.0308 12.1272
2337 2 33.1114 24.9167 12.3926
2338 2 31.8579 26.9827 11.8666
2339 2 28.7282 31.4207 10.3321
2340 2 34.5932 31.6111 9.75401
2341 2 34.3631 25.7348 12.9575
2342 2 44.1585 26.8745 21.6108
2343 2 35.6519 24.0666 12.5905
2344 2 36.8281 25.03 12.7631
2345 2 32.6144 27.9632 12.8367
2346 2 44.4666 26.123 22.9796
2347 2 36.8635 29.6308 11.9465
2348 2 35.5761 29.8273 11.1087
2349 2 33.4473 16.7553 17.0283
2350 2 34.6 17.7811 17.2664
2351 2 32.4656 18.6932 16.6927
2352 2 32.1364 20.5125 15.3286
2353 2 31.5456 21.1361 14.0428
2354 2 34.3777 18.6366 15.0718
2355 2 33.9583 19.9475 14.3267
2356 2 35.7895 20.2727 15.5767
2357 2 36.7552 21.5128 15.6162
2358 2 41.48 20.356 17.2143
2359 2 40.034 19.874 16.8526
2360 2 28.9127 21.4612 13.8832
2361 2 42.2398 25.2948 21.0114
2362 2 30.5633 24.4725 16.7086
2363 2 32.032 24.6413 16.1711
2364 2 32.9284 22.7863 15.091
2365 2 33.4573 24.1252 14.4318
2366 2 35.1583 24.8804 17.549
2367 2 34.7665 24.0011 16.302
2368 2 37.3722 22.9458 13.6476
2369 2 37.9445 21.4845 13.6797
2370 2 40.2923 22.077 16.9756
2371 2 39.3461 23.3307 17.1511
2372 2 41.6853 24.763 22.4185
2373 2 30.4541 26.4909 15.6761
2374 2 32.2467 28.1692 17.4744
2375 2 33.1937 27.9275 16.2557
2376 2 35.7702 27.6728 12.3079
2377 2 35.8454 27.4591 13.84
2378 2 37.1254 28.3682 15.5279
2379 2 35.8566 29.1594 15.879
2380 2 37.1339 24.7274 16.3438
2381 2 38.6152 24.8612 15.6295
2382 2 37.964 28.0744 17.5165
2383 2 38.1943 26.7492 16.6299
2384 2 39.54 23.6263 14.2679
2385 2 40.5632 24.6981 14.8258
2386 2 43.4173 27.0351 16.7971
2387 2 42.4095 28.0062 16.1239
2388 2 31.2146 17.5642 20.4745
2389 2 30.9276 18.1683 19.0999
2390 2 35.4946 15.2295 20.1825
2391 2 36.7311 16.052 20.8404
2392 2 41.0557 15.8079 20.4737
2393 2 41.3009 16.5411 21.8447
2394 2 28.6333 18.2043 18.7269
2395 2 33.9156 20.1434 20.0821
2396 2 32.7424 19.0819 20.1328
2397 2 36.0209 17.3403 19.0187
2398 2 35.8169 18.882 18.8191
2399 2 35.879 21.796 21.5286
2400 2 36.0391 20.2612 21.8318
2401 2 37.7709 18.7955 17.9235
2402 2 37.6598 20.0588 17.0574
2403 2 41.6423 19.1304 21.706
2404 2 40.6527 20.0364 20.8352
2405 2 46.5686 21.1614 23.7084
2406 2 45.5847 20.3328 22.8509
2407 2 36.9234 24.7302 22.7635
2408 2 30.9718 22.3173 20.7954
2409 2 38.1557 24.5293 21.8112
2410 2 32.4452 23.7797 20.1313
2411 2 33.3445 23.8372 21.4069
2412 2 35.5007 21.6256 19.1937
2413 2 35.3929 20.909 17.8203
2414 2 36.5314 23.7759 19.796
2415 2 35.0042 23.5107 20.1395
2416 2 38.9215 20.3866 19.1504
2417 2 39.163 21.5372 20.2651
2418 2 40.1636 23.5954 20.9696
2419 2 38.9172 23.7077 20.0384
2420 2 42.3008 20.8308 19.716
2421 2 41.6815 22.0306 18.924
2422 2 45.0671 23.1513 20.0818
2423 2 43.9728 22.4519 19.1464
2424 2 31.4682 25.886 18.3151
2425 2 32.0253 27.3731 20.3164
2426 2 31.6245 28.6684 21.1385
2427 2 33.9266 26.6678 18.3355
2428 2 33.8766 25.5075 19.4183
2429 2 36.7556 26.4677 21.2066
2430 2 35.6272 26.6785 20.0978
2431 2 38.0899 24.9287 18.1978
2432 2 38.4277 25.6637 19.5568
2433 2 40.2824 27.3231 19.8949
2434 2 40.2795 26.062 20.8397
2435 2 41.3471 24.2015 16.7711
2436 2 42.7144 24.904 16.4701
2437 2 42.7253 27.2479 19.733
2438 2 43.7895 26.1579 19.3382
2439 2 45.2513 25.5262 17.3813
2440 2 44.5201 24.4406 18.2646
2441 2 32.5939 27.4032 22.7456
2442 2 32.5639 26.4388 24.0286
2443 2 34.0663 18.36 21.5963
2444 2 34.9254 17.0349 21.3789
2445 2 37.8701 19.5629 20.8264
2446 2 37.4555 18.2254 21.5634
2447 2 42.8605 18.2102 23.1726
2448 2 41.5132 17.6292 23.7754
2449 2 29.1524 27.9159 22.5252
2450 2 31.9446 20.5846 21.7229
2451 2 34.4777 23.4582 23.3297
2452 2 33.846 22.1343 22.8563
2453 2 36.3794 21.3667 23.6313
2454 2 37.742 21.5382 24.4113
2455 2 42.1955 22.4227 23.3374
2456 2 41.8965 21.0763 22.5211
2457 2 46.1143 22.3978 22.0182
2458 2 45.5415 23.7925 22.4468
2459 2 33.168 16.5964 22.7172
2460 2 35.0579 15.5208 25.6508
2461 2 35.4372 19.281 24.3579
2462 2 32.0289 24.4579 25.6262
2463 2 36.3387 23.1964 24.3071
2464 2 44.5015 24.0974 24.6049
2465 2 47.4655 24.2778 21.5403
2466 2 34.1174 28.1424 24.5421
2467 2 46.4926 27.1234 22.7598
2468 2 34.0743 29.0217 14.4099
2469 2 37.09 30.0683 14.0933
2470 2 37.0022 31.4708 13.3486
2471 2 39.9229 28.3644 16.4824
2472 2 35.9115 29.4749 17.9932
2473 2 34.433 29.1269 17.4612
2474 2 37.0008 28.2582 19.62
2475 2 41.3621 28.6612 18.2296
2476 2 43.838 29.4532 16.6287
2477 2 30.6744 29.8524 22.8104
2478 2 35.385 28.6799 21.4085
2479 2 39.4878 28.0361 21.7482
2480 2 43.1707 30.3916 23.2332
2481 2 45.9754 29.8732 23.3399
2482 2 32.4803 16.6547 24.1208
2483 2 46.1793 29.2119 35.7386
2484 2 35.7097 16.9199 25.4166
2485 2 45.7561 26.2522 32.1658
2486 2 40.2392 16.5987 25.7316
2487 2 41.0704 17.9062 26.0643
2488 2 46.7948 26.0605 33.3404
2489 2 33.0141 19.3077 24.961
2490 2 32.6695 20.7948 24.6064
2491 2 35.478 18.1102 23.3362
2492 2 41.9049 27.5928 34.2579
2493 2 39.3028 20.4003 24.8305
2494 2 40.4318 21.306 24.1271
2495 2 44.5829 19.1888 24.4453
2496 2 43.5044 20.1644 23.7814
2497 2 32.7197 24.0967 24.2501
2498 2 43.1907 26.0925 33.4855
2499 2 41.7805 25.5094 33.8288
2500 2 35.7512 24.6656 24.6726
2501 2 38.777 27.9208 36.2461
2502 2 40.9953 24.0953 24.6882
2503 2 42.062 25.2036 24.6435
2504 2 45.6813 25.1219 24.5461
2505 2 48.6699 24.8488 20.71
2506 2 37.3047 24.7196 33.2966
2507 2 35.986 24.6782 32.4613
2508 2 31.1449 28.1364 24.0962
2509 2 29.6491 28.1652 24.6998
2510 2 35.5565 28.6852 25.0749
2511 2 36.8853 28.4128 37.0213
2512 2 39.2626 27.4626 24.8546
2513 2 39.6702 28.7009 23.9535
2514 2 44.2395 28.3858 23.4202
2515 2 44.0988 29.2468 24.7851
2516 2 47.8569 26.4473 22.4571
2517 2 32.2548 28.0678 34.727
2518 2 32.5204 15.2613 27.4973
2519 2 31.1922 15.8227 28.05
2520 2 37.2009 17.0432 28.606
2521 2 36.2912 16.2385 27.5769
2522 2 38.7402 15.5787 30.5959
2523 2 40.0842 15.8657 31.3174
2524 2 44.2368 16.8549 28.3177
2525 2 43.4294 18.0579 27.7493
2526 2 31.163 19.2268 26.8078
2527 2 32.9375 26.6851 34.4585
2528 2 33.1244 19.7649 27.9834
2529 2 31.7456 20.1423 28.7138
2530 2 33.6995 17.2292 25.7896
2531 2 32.2238 17.0773 26.2213
2532 2 37.6055 19.7728 26.5828
2533 2 37.363 19.5155 28.1212
2534 2 39.094 18.3037 25.2232
2535 2 37.6229 18.703 24.6636
2536 2 41.0883 18.1933 30.2293
2537 2 40.5669 19.6698 30.3567
2538 2 42.1821 19.723 27.3208
2539 2 41.2726 18.8241 28.2143
2540 2 42.488 21.652 28.4493
2541 2 43.8096 20.8205 28.3493
2542 2 46.0244 19.7048 26.0095
2543 2 45.2524 18.42 26.5492
2544 2 32.6807 28.739 36.6346
2545 2 31.0806 22.345 25.4464
2546 2 30.6506 23.514 27.4188
2547 2 32.1762 23.1354 27.5382
2548 2 34.2101 20.5747 26.2361
2549 2 35.4592 20.4074 27.2049
2550 2 35.356 25.0934 27.4314
2551 2 36.3591 25.3378 28.6363
2552 2 39.7109 23.7781 26.6649
2553 2 39.4898 22.8236 25.3965
2554 2 40.4016 23.4292 28.8315
2555 2 38.8349 23.5284 28.5755
2556 2 43.5106 22.4182 26.7283
2557 2 42.9171 23.2895 25.5489
2558 2 43.766 26.2739 26.6359
2559 2 43.9479 24.7797 27.0103
2560 2 47.1164 22.2861 25.9793
2561 2 45.5941 22.2094 25.6919
2562 2 48.3759 24.317 27.8567
2563 2 47.1565 23.3904 27.9336
2564 2 28.2354 26.5591 25.7318
2565 2 31.6145 29.3485 29.5004
2566 2 32.7672 28.2666 29.2486
2567 2 34.0225 25.3284 25.5742
2568 2 34.9423 26.5978 25.7229
2569 2 35.8321 29.1321 29.0837
2570 2 35.4416 28.1686 27.9234
2571 2 38.8643 25.2269 25.0961
2572 2 38.2637 25.8355 23.7724
2573 2 39.9957 27.1852 28.2972
2574 2 40.167 25.6404 28.2156
2575 2 41.4927 26.6144 26.4794
2576 2 41.4732 27.3666 25.1238
2577 2 43.7312 29.7861 28.7374
2578 2 43.4419 28.6588 29.7452
2579 2 47.3516 26.3236 24.7673
2580 2 47.2955 25.3147 26.053
2581 2 46.5412 28.5616 27.7059
2582 2 46.5157 27.593 26.4276
2583 2 32.8605 15.4037 31.9228
2584 2 32.8972 16.8371 31.2024
2585 2 35.9579 15.8425 32.2902
2586 2 35.1295 16.4768 33.558
2587 2 40.5363 16.2889 33.7468
2588 2 39.7122 17.3745 32.9481
2589 2 45.5694 16.708 32.3122
2590 2 45.4667 18.1421 32.9554
2591 2 29.1229 27.2385 33.3727
2592 2 32.5429 18.7427 29.9244
2593 2 32.1462 21.1736 32.3143
2594 2 30.7865 21.4228 33.0752
2595 2 33.6209 20.2378 30.9151
2596 2 33.74 21.6503 30.1761
2597 2 36.9731 21.5579 30.1803
2598 2 35.7926 20.9081 30.9683
2599 2 37.3918 19.3116 30.1592
2600 2 38.729 18.5689 29.7076
2601 2 41.1871 20.5376 32.2509
2602 2 39.813 21.2173 32.006
2603 2 43.4084 17.4405 31.526
2604 2 41.9567 16.9791 31.8699
2605 2 43.4944 20.0275 32.5171
2606 2 43.7597 21.5162 32.1667
2607 2 44.6589 20.1193 30.3926
2608 2 44.8649 19.1527 29.1235
2609 2 30.6399 21.0553 30.5364
2610 2 46.2378 24.6425 34.8218
2611 2 31.7028 24.8216 31.1907
2612 2 33.0623 24.5931 31.9806
2613 2 34.2523 23.4867 28.6949
2614 2 34.0507 22.0565 28.0572
2615 2 34.3169 23.2067 33.5366
2616 2 34.3934 22.7044 32.0664
2617 2 37.2673 21.8241 28.073
2618 2 36.6095 23.2186 28.4859
2619 2 39.8651 24.2779 33.6542
2620 2 40.1317 25.0567 32.3303
2621 2 42.427 23.2111 29.8714
2622 2 41.379 22.1247 30.4207
2623 2 43.9767 23.8858 31.0869
2624 2 44.652 24.7768 29.9639
2625 2 46.1283 21.5453 29.2345
2626 2 45.4909 22.9363 29.5148
2627 2 47.0565 22.9527 31.063
2628 2 47.0984 24.2851 31.9007
2629 2 46.1884 23.0791 33.3785
2630 2 29.1928 24.911 31.159
2631 2 45.4264 22.5203 34.6742
2632 2 30.4013 26.7969 31.6384
2633 2 31.1739 27.3702 32.8591
2634 2 34.1769 26.1093 29.1299
2635 2 33.1642 26.2011 30.3203
2636 2 33.58 28.4832 33.1082
2637 2 34.9037 29.3296 33.3335
2638 2 38.214 26.2121 29.6968
2639 2 37.3452 27.2032 28.8179
2640 2 38.1721 25.8131 31.7627
2641 2 39.2799 26.9625 31.5705
2642 2 43.4116 26.4761 28.8839
2643 2 41.972 26.853 29.2515
2644 2 44.1891 27.721 32.3148
2645 2 43.5948 26.7374 31.2226
2646 2 46.865 25.6205 29.4138
2647 2 45.6637 25.9079 28.4522
2648 2 47.7821 27.1145 31.5337
2649 2 47.7175 28.0689 30.299
2650 2 48.867 24.5702 30.3199
2651 2 48.9124 26.0981 30.0027
2652 2 30.7843 17.2987 34.3139
2653 2 42.3579 24.2147 35.3143
2654 2 34.4871 16.7399 36.2978
2655 2 35.6771 16.5178 37.3841
2656 2 39.432 18.0216 36.0667
2657 2 43.6574 23.5046 33.3217
2658 2 42.177 23.5789 32.76
2659 2 30.5503 19.3821 33.5249
2660 2 29.6819 20.7165 37.0844
2661 2 32.9706 16.9277 34.553
2662 2 33.8814 18.1754 34.9467
2663 2 38.1693 22.8831 34.1484
2664 2 33.6874 19.6211 36.8739
2665 2 37.433 17.2489 33.1532
2666 2 37.8226 17.6367 31.7151
2667 2 39.7746 20.2101 35.6083
2668 2 41.5733 18.6378 33.4926
2669 2 41.8818 19.9149 34.3893
2670 2 37.6972 21.1453 32.4043
2671 2 43.8324 21.0321 35.7259
2672 2 45.9016 19.8808 34.7038
2673 2 45.6214 20.1664 33.2044
2674 2 38.456 20.6117 33.6947
2675 2 29.1094 21.7592 34.6302
2676 2 29.4455 22.9292 33.6551
2677 2 30.8895 23.0032 35.671
2678 2 34.1346 21.5593 35.402
2679 2 33.1701 22.7732 35.4699
2680 2 33.0682 24.9124 36.1182
2681 2 33.9748 29.6103 26.2988
2682 2 38.0308 29.0752 25.4788
2683 2 40.672 29.1722 26.1711
2684 2 44.8503 29.3101 26.7325
2685 2 47.9382 29.7611 26.3831
2686 2 29.4175 28.9169 30.2424
2687 2 34.7234 29.531 31.1716
2688 2 38.4616 30.2457 29.1237
2689 2 40.1192 28.9281 29.9789
2690 2 47.1893 30.0359 29.3084
2691 2 45.7803 29.3813 29.6503
2692 2 49.0088 30.3882 32.7916
2693 2 29.3772 30.4533 35.4233
2694 2 33.2127 30.7841 32.6125
2695 2 32.7867 31.8736 33.6487
2696 2 40.5392 28.5344 32.6744
2697 2 39.313 29.2975 32.0383
2698 2 45.5163 28.9551 33.604
2699 2 48.2926 29.7667 34.8098
2700 2 30.4042 17.1807 40.7088
2701 2 30.2462 17.6407 39.2313
2702 2 34.2095 16.4487 41.0668
2703 2 34.3787 17.7888 40.3479
2704 2 38.0475 16.8352 40.9458
2705 2 39.3122 16.8373 40.0354
2706 2 40.94 25.7363 43.8089
2707 2 40.9845 27.1878 44.4338
2708 2 29.4914 18.6575 37.5434
2709 2 32.1612 19.9016 41.5937
2710 2 31.2695 19.2286 40.5338
2711 2 32.7024 18.133 39.0454
2712 2 33.9894 17.7044 38.2143
2713 2 34.2671 20.1554 39.5802
2714 2 34.1006 21.4741 40.4452
2715 2 37.0067 18.7803 37.4964
2716 2 36.97 20.328 37.8035
2717 2 38.1108 19.3801 41.2492
2718 2 39.2377 19.4095 40.1548
2719 2 40.1296 17.9735 38.2422
2720 2 41.1171 18.8438 39.0957
2721 2 42.6681 21.0078 39.1955
2722 2 41.1601 21.066 38.9497
2723 2 28.8778 22.8225 37.8809
2724 2 29.2265 21.8735 39.0528
2725 2 31.5847 24.6951 40.0357
2726 2 32.7641 23.7759 40.4366
2727 2 31.9271 21.0516 39.0975
2728 2 33.1732 21.519 38.3705
2729 2 36.3176 23.6196 39.0301
2730 2 36.0469 25.1606 39.179
2731 2 37.6785 20.9873 39.7446
2732 2 36.1844 21.4052 39.3844
2733 2 39.5958 23.0744 39.8807
2734 2 38.325 22.9263 38.9743
2735 2 41.7937 20.7369 36.8377
2736 2 41.6153 21.9053 35.7914
2737 2 42.177 22.5063 40.7618
2738 2 43.636 23.0926 40.9225
2739 2 44.2158 24.2532 37.7829
2740 2 43.6031 23.1518 38.7652
2741 2 36.1257 26.5139 44.6862
2742 2 30.1508 24.3937 37.2944
2743 2 36.6743 25.1625 45.337
2744 2 31.6572 27.4922 40.5593
2745 2 31.3549 28.4654 39.3603
2746 2 33.7709 26.9491 37.0877
2747 2 33.2413 27.6026 38.4488
2748 2 37.2063 26.4434 40.6025
2749 2 35.6194 26.6659 40.6973
2750 2 36.6547 26.0301 36.094
2751 2 36.2997 24.7824 36.9998
2752 2 40.134 28.3123 40.0278
2753 2 38.7997 29.0582 39.5725
2754 2 39.866 24.8387 38.0642
2755 2 40.9947 24.9253 36.9998
2756 2 44.6588 27.3685 37.7296
2757 2 45.0481 28.8991 37.6827
2758 2 43.5932 26.0421 36.0143
2759 2 45.1231 25.8455 36.2506
2760 2 31.4289 16.716 44.57
2761 2 30.7171 18.0873 44.8395
2762 2 29.7347 16.9046 42.8159
2763 2 31.4313 23.3317 43.7491
2764 2 30.578 22.0008 43.7255
2765 2 33.5809 18.3151 42.3164
2766 2 32.3481 18.4173 43.3036
2767 2 34.1182 19.7364 43.9866
2768 2 33.9813 20.5252 45.3196
2769 2 36.2369 17.8066 41.7267
2770 2 37.1609 18.174 42.9618
2771 2 37.241 18.0959 45.3898
2772 2 36.1481 19.1055 44.8942
2773 2 30.3191 21.2495 41.0093
2774 2 34.6251 29.0603 46.9885
2775 2 32.1849 25.3835 44.4837
2776 2 31.1587 25.7727 43.3032
2777 2 32.6268 22.2581 42.2828
2778 2 34.0073 22.9936 42.1747
2779 2 35.967 23.2135 42.9882
2780 2 35.4684 24.5109 43.7045
2781 2 37.3314 21.0674 43.6885
2782 2 35.8901 21.2632 44.2347
2783 2 39.1949 24.0931 43.9213
2784 2 39.3224 24.7778 42.5002
2785 2 40.1661 22.8648 42.0421
2786 2 39.8385 21.458 41.3488
2787 2 30.1829 25.8436 41.3297
2788 2 33.509 27.3346 42.7292
2789 2 32.3322 28.1146 43.4381
2790 2 34.5777 25.3413 41.9688
2791 2 33.5174 25.7339 40.9011
2792 2 36.9091 28.4711 43.4128
2793 2 35.3543 28.3965 43.7907
2794 2 38.6747 24.8591 40.3495
2795 2 39.5303 26.1009 40.7114
2796 2 39.402 28.7823 44.1219
2797 2 39.121 28.672 45.6424
2798 2 41.061 26.334 39.1238
2799 2 41.7734 26.7309 40.527
2800 2 43.5633 27.5111 41.5493
2801 2 42.5318 26.7865 42.564
2802 2 44.8954 24.2235 42.5662
2803 2 44.0181 25.234 41.7432
2804 2 27.0404 18.6777 44.3973
2805 2 32.995 26.3664 46.3437
2806 2 31.1231 19.9584 46.1485
2807 2 30.3678 18.9004 47.0163
2808 2 28.3203 21.643 43.6447
2809 2 34.2912 25.6374 45.7561
2810 2 30.1378 24.2762 47.5719
2811 2 32.1494 21.6654 45.16
2812 2 32.6518 21.8923 46.6316
2813 2 33.6819 23.373 48.2661
2814 2 33.0862 24.2068 47.0651
2815 2 37.4801 22.9545 44.9314
2816 2 38.4198 23.3962 46.1177
2817 2 31.199 28.119 45.7289
2818 2 30.3662 25.133 45.4104
2819 2 31.1941 28.1288 47.3126
2820 2 46.6393 27.751 35.3192
2821 2 40.724 28.2705 35.0038
2822 2 40.0193 27.1567 36.8369
2823 2 36.78 28.5103 35.432
2824 2 32.3002 30.0692 35.8312
2825 2 47.4414 25.252 35.6398
2826 2 30.9504 15.9296 35.1185
2827 2 38.743 16.9221 36.9769
2828 2 42.6895 23.5158 36.6788
2829 2 31.1435 20.2306 37.1004
2830 2 35.1533 19.685 36.3757
2831 2 37.6945 24.0783 35.1497
2832 2 38.2747 19.8262 35.946
2833 2 44.6661 21.8912 36.7014
2834 2 31.6135 22.728 37.0597
2835 2 34.5655 25.296 35.785
2836 2 30.9056 29.3664 37.4288
2837 2 34.4519 29.5762 37.722
2838 2 36.7528 29.7817 39.2548
2839 2 40.004 29.9496 36.4771
2840 2 44.9831 30.9325 37.5024
2841 2 33.0617 29.3551 40.7118
2842 2 33.5799 29.4519 42.1564
2843 2 38.7253 28.9623 41.7807
2844 2 39.766 31.7918 41.4908
2845 2 44.8033 28.4469 39.8616
2846 2 33.351 29.601 45.0829
2847 2 40.312 30.529 45.33
2848 2 36.781 29.0775 47.0622
2849 2 29.4625 24.8233 49.5303
2850 2 34.6064 28.7521 48.5004
2851 2 31.1036 23.4107 48.3941
2852 2 32.9005 30.3124 49.0764
2853 2 31.0885 34.7435 12.3858
2854 2 33.7383 31.6174 11.0802
2855 2 31.6863 32.7315 11.7378
2856 2 35.7024 32.5485 11.9338
2857 2 35.8637 39.4513 12.3019
2858 2 31.6667 31.1632 12.0058
2859 2 40.7305 41.7483 22.4112
2860 2 35.0346 33.0333 13.2478
2861 2 39.17 41.523 22.4698
2862 2 32.523 36.3299 13.7117
2863 2 30.9819 36.5571 13.9069
2864 2 36.6906 38.5789 13.2997
2865 2 35.9493 41.6403 20.6243
2866 2 30.4979 30.0282 13.4508
2867 2 36.8581 40.6395 21.4489
2868 2 30.8414 29.995 16.0091
2869 2 31.1458 31.4014 15.3122
2870 2 32.5688 29.4242 14.7277
2871 2 35.442 32.811 16.1837
2872 2 34.9743 31.3636 16.6775
2873 2 30.546 41.3742 21.7515
2874 2 32.1008 41.1352 21.5313
2875 2 39.3631 31.784 15.8652
2876 2 39.0545 31.0408 14.5274
2877 2 40.5838 29.7032 16.0318
2878 2 42.9024 31.8393 16.872
2879 2 41.7882 32.6477 17.6707
2880 2 28.3365 41.5685 22.081
2881 2 31.6483 33.7009 14.8601
2882 2 43.5101 38.6884 20.6561
2883 2 30.6952 34.1261 16.816
2884 2 31.1618 34.9604 18.0869
2885 2 33.7597 32.5918 14.8275
2886 2 33.047 32.5367 13.375
2887 2 36.1049 35.6098 15.638
2888 2 35.7733 36.5111 16.8822
2889 2 37.5269 33.9948 15.6894
2890 2 36.6289 33.7715 14.3841
2891 2 39.846 34.1522 15.9601
2892 2 39.0125 34.793 17.1756
2893 2 41.8738 33.5535 15.6004
2894 2 40.8668 32.9972 14.5925
2895 2 44.4685 39.34 21.7142
2896 2 29.3315 37.2671 15.323
2897 2 33.2803 39.0294 14.6671
2898 2 32.0498 40.0469 14.6894
2899 2 34.5348 37.1166 14.8286
2900 2 34.6138 37.8167 13.437
2901 2 36.4806 41.4464 15.9018
2902 2 37.3426 40.1426 15.696
2903 2 38.5381 38.412 15.0505
2904 2 37.0959 37.7553 15.3392
2905 2 40.8666 38.4174 16.037
2906 2 40.2513 39.7979 15.677
2907 2 30.1884 41.0017 15.5645
2908 2 41.7191 36.5521 22.5935
2909 2 30.478 42.8783 16.852
2910 2 29.6154 41.7718 17.5241
2911 2 34.2199 41.4121 15.1905
2912 2 34.4569 42.5206 16.2564
2913 2 40.3605 37.1919 22.1155
2914 2 38.1396 37.4953 22.3728
2915 2 31.5789 30.813 20.3373
2916 2 32.3599 31.5897 19.1755
2917 2 38.9599 37.3001 23.7102
2918 2 35.1126 31.012 21.1911
2919 2 34.8516 32.1566 20.1262
2920 2 33.6416 37.4819 22.0656
2921 2 37.8172 29.6044 19.3959
2922 2 34.3331 38.2035 20.8029
2923 2 38.3993 31.4027 20.8913
2924 2 39.4287 31.2572 19.721
2925 2 41.9099 29.3165 19.5581
2926 2 31.4482 36.7054 21.0904
2927 2 42.5406 30.9273 21.2095
2928 2 43.3646 31.3766 19.9161
2929 2 44.6844 30.5236 17.4234
2930 2 45.6459 35.8068 21.9538
2931 2 29.4813 33.2318 18.7174
2932 2 30.1049 31.8271 18.9693
2933 2 33.7167 34.8983 20.7659
2934 2 32.7602 35.7718 19.8535
2935 2 33.9974 32.5988 17.9503
2936 2 33.5158 33.594 19.1098
2937 2 36.7139 36.44 20.6294
2938 2 35.9 37.2717 21.6723
2939 2 37.9093 32.9826 18.0499
2940 2 37.1144 32.1979 19.1147
2941 2 40.1251 35.1078 21.3148
2942 2 38.9943 33.9385 21.3145
2943 2 41.3527 31.9298 19.6379
2944 2 40.3832 33.2056 19.7129
2945 2 44.1926 34.4239 21.5166
2946 2 44.0672 35.5871 20.4211
2947 2 43.9286 32.8643 18.4125
2948 2 44.7128 33.3683 19.6627
2949 2 29.1874 39.3434 18.121
2950 2 46.1353 35.5381 23.4154
2951 2 30.933 38.4131 19.5403
2952 2 30.8727 39.9704 19.8725
2953 2 35.5857 37.3758 18.8817
2954 2 35.0568 35.9064 19.0806
2955 2 35.5106 39.615 19.6629
2956 2 34.3202 39.3035 18.6196
2957 2 38.8758 35.3463 19.3876
2958 2 37.6114 35.8603 18.5949
2959 2 39.073 37.7355 18.9661
2960 2 39.2531 39.3233 18.825
2961 2 41.3435 36.6051 17.286
2962 2 40.9125 37.893 18.0927
2963 2 42.7022 37.1677 19.0553
2964 2 42.2202 36.91 20.5346
2965 2 41.1178 33.2849 24.5722
2966 2 32.0971 44.2464 20.3399
2967 2 31.3532 42.8974 20.1209
2968 2 32.9944 39.89 16.7612
2969 2 32.2254 39.7522 18.1514
2970 2 34.7603 43.1531 19.4436
2971 2 35.934 43.95 20.2605
2972 2 38.0131 41.0287 17.6835
2973 2 37.7436 40.9198 19.2401
2974 2 39.5919 42.9672 20.7049
2975 2 39.079 42.6586 19.2691
2976 2 42.12 34.2155 23.7864
2977 2 36.9039 32.5541 21.5844
2978 2 37.8411 32.3028 22.842
2979 2 33.8795 29.0001 21.2915
2980 2 33.2742 33.6658 22.7261
2981 2 39.4009 29.5818 21.6203
2982 2 34.5449 33.2615 21.9188
2983 2 41.8022 31.1969 23.4523
2984 2 47.3914 29.3041 23.0795
2985 2 30.3451 33.7607 23.222
2986 2 39.6939 31.6054 24.615
2987 2 43.3818 32.6576 22.905
2988 2 44.3201 33.6509 23.7071
2989 2 47.3426 31.5745 24.028
2990 2 32.3441 36.0134 23.3858
2991 2 36.5062 35.7199 23.1159
2992 2 40.0326 35.4433 24.5226
2993 2 45.8258 38.0168 23.1345
2994 2 31.0492 41.3403 25.326
2995 2 33.9621 39.846 22.0399
2996 2 38.2238 39.5145 23.0678
2997 2 42.5716 40.3068 22.097
2998 2 34.0445 44.1109 23.4732
2999 2 39.3856 43.3567 23.5226
3000 2 45.5411 41.092 32.1003
3001 2 31.9877 32.6222 24.3653
3002 2 31.6233 31.9374 22.9865
3003 2 44.7708 39.8951 32.7688
3004 2 37.5608 31.022 24.878
3005 2 37.8142 32.5838 25.0692
3006 2 40.8788 31.1157 25.5552
3007 2 41.848 41.6397 31.92
3008 2 40.8397 41.505 33.1832
3009 2 47.9879 31.7887 25.4144
3010 2 39.6077 42.9681 34.6778
3011 2 38.7831 41.6794 34.3347
3012 2 31.823 37.4723 23.227
3013 2 36.5434 42.5303 31.0452
3014 2 35.3155 34.9166 23.6434
3015 2 39.6035 36.3497 25.7205
3016 2 37.2111 41.1892 31.4502
3017 2 44.0095 36.413 23.3052
3018 2 43.268 37.2289 24.3941
3019 2 34.6954 43.7208 34.4473
3020 2 46.631 39.3505 23.0492
3021 2 35.0794 43.2678 32.9664
3022 2 31.6664 40.5966 24.1177
3023 2 33.1133 40.2067 32.9361
3024 2 34.014 41.0256 23.0482
3025 2 33.8753 41.0705 34.0051
3026 2 30.2674 42.6894 35.2094
3027 2 37.6078 40.7671 23.8554
3028 2 41.7497 40.1686 23.4743
3029 2 30.0723 40.6383 34.4198
3030 2 31.7377 44.0676 22.6659
3031 2 31.1184 42.9899 23.6044
3032 2 34.5833 43.1678 24.6218
3033 2 43.6841 37.6571 32.8579
3034 2 44.8901 36.7756 32.3172
3035 2 38.5106 43.198 24.8057
3036 2 42.6109 39.8981 33.3064
3037 2 30.3999 31.5821 25.8311
3038 2 32.0666 32.8542 28.2234
3039 2 31.4868 33.208 29.6768
3040 2 40.8321 37.2056 32.0824
3041 2 41.0453 36.1343 33.2352
3042 2 33.1376 29.8895 27.6177
3043 2 35.2772 32.3329 28.6973
3044 2 35.0952 31.2898 27.5714
3045 2 36.9776 29.3772 26.6241
3046 2 40.3258 33.1849 28.5261
3047 2 38.9542 32.3579 28.7418
3048 2 42.1222 29.5716 26.7037
3049 2 39.6862 38.8001 35.6044
3050 2 43.2881 32.9193 27.4806
3051 2 44.5343 32.9371 26.4904
3052 2 37.9734 37.453 32.3741
3053 2 38.3659 38.388 33.5639
3054 2 44.091 30.7393 26.7881
3055 2 48.9072 31.0506 30.0126
3056 2 48.3284 32.2339 29.1225
3057 2 48.6969 30.7015 27.3674
3058 2 29.0486 34.2045 26.9726
3059 2 35.8733 38.2534 36.1066
3060 2 31.7323 35.3021 25.7147
3061 2 32.9743 36.1703 25.5799
3062 2 32.8622 33.3094 26.0421
3063 2 32.9067 31.7248 26.3344
3064 2 36.214 34.3878 27.3695
3065 2 35.2753 34.8837 28.5755
3066 2 38.0707 34.6578 25.6081
3067 2 38.4548 33.682 26.7995
3068 2 40.4865 37.3066 27.8341
3069 2 39.4776 36.1739 28.0529
3070 2 41.743 35.631 27.1308
3071 2 42.1893 34.8847 25.8429
3072 2 44.0674 35.7708 26.7035
3073 2 44.9516 36.9626 26.2443
3074 2 45.5777 34.5671 25.6262
3075 2 46.2866 33.2136 25.0277
3076 2 48.4987 34.4664 29.6433
3077 2 47.0756 33.9682 29.2016
3078 2 31.807 38.4913 25.0482
3079 2 30.9992 39.6929 29.08
3080 2 30.2193 38.3588 28.6037
3081 2 33.4711 38.5788 26.5675
3082 2 32.0324 38.3942 27.2139
3083 2 35.2712 39.5341 27.4874
3084 2 35.5506 38.544 26.2831
3085 2 36.1246 36.4815 26.7569
3086 2 36.3402 36.6049 25.2244
3087 2 40.2912 40.9256 27.3394
3088 2 39.233 39.7153 27.2312
3089 2 40.7388 39.6137 25.4903
3090 2 42.1411 38.9869 25.188
3091 2 42.5069 39.2357 28.2273
3092 2 42.7013 40.6913 27.6517
3093 2 44.6792 39.0427 25.0111
3094 2 43.8537 39.1004 26.4036
3095 2 30.2195 40.4353 27.2755
3096 2 34.1748 36.699 33.602
3097 2 31.7024 45.1737 27.8846
3098 2 31.4153 45.1361 29.4482
3099 2 34.7625 40.7472 25.4728
3100 2 33.4194 41.426 25.01
3101 2 34.9997 42.5747 28.1659
3102 2 36.4581 43.1734 28.3278
3103 2 38.3648 41.3228 26.0172
3104 2 36.937 41.9763 26.171
3105 2 39.1885 44.5272 28.2484
3106 2 40.3977 44.9078 27.2342
3107 2 44.7917 41.6592 24.0927
3108 2 43.302 41.7528 23.6133
3109 2 42.7166 43.1113 26.8501
3110 2 43.5336 43.1452 25.5017
3111 2 46.1251 44.5647 27.5202
3112 2 44.6232 44.1572 27.3231
3113 2 34.0645 37.6177 34.8385
3114 2 31.986 40.2503 35.4887
3115 2 31.6801 32.5721 31.813
3116 2 30.1362 32.497 31.6037
3117 2 31.8813 36.9241 34.0519
3118 2 33.9865 29.9196 29.8822
3119 2 35.2688 31.6383 30.967
3120 2 34.4359 32.3803 32.0373
3121 2 46.1385 38.0578 35.5101
3122 2 37.1644 31.1457 28.824
3123 2 38.1466 31.4399 32.397
3124 2 37.8284 30.6147 31.1337
3125 2 40.4407 29.3757 28.4746
3126 2 43.7895 32.4284 30.8971
3127 2 43.16 31.0237 30.7773
3128 2 46.2557 32.7282 32.559
3129 2 45.4265 33.8113 33.3935
3130 2 45.711 30.5022 32.0415
3131 2 47.2165 30.8464 31.704
3132 2 48.8239 29.2975 31.6443
3133 2 30.203 35.8681 27.5776
3134 2 43.875 35.4022 33.6125
3135 2 30.5222 36.175 32.0287
3136 2 30.447 34.7387 31.3569
3137 2 34.6147 33.8047 30.4636
3138 2 33.4021 34.2546 29.5684
3139 2 35.1162 35.5319 31.563
3140 2 36.4823 35.7669 32.314
3141 2 38.6739 34.5227 29.0388
3142 2 37.4169 35.4286 28.7948
3143 2 39.2437 35.8325 32.067
3144 2 38.2661 35.6262 30.828
3145 2 42.1649 32.7538 29.7335
3146 2 42.1708 34.2288 29.2167
3147 2 43.6933 36.0763 29.7686
3148 2 42.6356 35.9923 30.9143
3149 2 45.7495 32.2548 30.1452
3150 2 44.9097 32.7514 28.8843
3151 2 46.5405 35.1124 32.1063
3152 2 46.2886 36.0339 30.8277
3153 2 49.6349 34.8651 31.6399
3154 2 48.4676 35.844 31.3475
3155 2 29.7323 36.4331 29.7438
3156 2 32.5358 38.3605 31.5864
3157 2 31.4721 38.5029 32.7478
3158 2 34.4435 37.8846 30.8371
3159 2 33.7167 36.5795 30.3086
3160 2 36.3984 39.0419 32.1313
3161 2 35.0747 39.9495 32.195
3162 2 37.8064 38.0151 27.2065
3163 2 37.4606 39.0417 28.3428
3164 2 40.7511 39.6903 31.7812
3165 2 39.442 38.8217 31.6481
3166 2 41.997 37.3735 29.3731
3167 2 41.035 38.5315 29.8407
3168 2 45.3491 39.5729 30.4353
3169 2 44.5989 39.6244 29.0204
3170 2 45.4745 37.5887 29.3471
3171 2 45.4232 36.3593 28.37
3172 2 41.0871 32.8819 33.8959
3173 2 31.6179 40.236 31.0072
3174 2 42.1302 32.4686 32.739
3175 2 30.9912 42.4351 33.0752
3176 2 32.4918 42.5029 32.6654
3177 2 32.7933 43.527 29.0249
3178 2 32.6121 42.058 29.6193
3179 2 35.0512 44.481 31.077
3180 2 34.3221 43.1823 30.5333
3181 2 35.8883 39.7793 29.9445
3182 2 36.1603 40.8972 28.8342
3183 2 39.5535 44.7453 31.3034
3184 2 38.5153 43.569 31.5391
3185 2 40.8909 42.9578 28.0483
3186 2 41.8234 42.1596 29.007
3187 2 42.2791 43.4653 30.6528
3188 2 43.5409 42.5102 30.4341
3189 2 45.3798 43.1106 29.3116
3190 2 45.5053 41.5874 29.6559
3191 2 40.1819 34.876 34.9941
3192 2 29.4003 31.3533 34.1573
3193 2 31.2817 31.8377 35.2725
3194 2 36.7128 32.9628 32.431
3195 2 37.902 33.9969 32.3962
3196 2 35.1591 32.4655 35.1912
3197 2 35.0961 34.7848 35.7754
3198 2 36.9707 29.9134 33.4484
3199 2 36.163 30.5237 34.6973
3200 2 35.0774 35.827 36.9658
3201 2 38.6354 33.003 34.2688
3202 2 34.9895 34.5198 33.5535
3203 2 33.6427 34.3243 34.3139
3204 2 42.7374 31.2912 34.486
3205 2 30.3186 34.7831 36.1053
3206 2 44.1729 29.7371 33.5072
3207 2 30.2129 35.0411 34.0441
3208 2 46.8668 32.8866 34.709
3209 2 48.5355 31.2784 34.992
3210 2 37.8093 44.5296 29.74
3211 2 31.7495 42.1104 45.2638
3212 2 31.3453 43.3511 46.149
3213 2 32.7496 31.2702 38.8545
3214 2 31.3442 31.9435 39.158
3215 2 29.6866 42.8008 44.3833
3216 2 34.9293 30.8042 38.5671
3217 2 37.7103 37.6476 45.0525
3218 2 35.0116 30.629 40.6571
3219 2 35.7964 31.977 40.3318
3220 2 36.8105 28.2103 39.304
3221 2 39.0575 37.1128 44.4701
3222 2 40.2082 32.4446 39.1999
3223 2 39.3025 33.105 38.0873
3224 2 40.3049 31.3796 37.0915
3225 2 44.7074 32.1153 39.6361
3226 2 44.5639 30.5548 39.8154
3227 2 33.9496 39.3789 45.2252
3228 2 44.3645 30.5732 36.0496
3229 2 35.101 38.3126 45.608
3230 2 30.0503 34.8607 38.3982
3231 2 30.8194 37.5607 45.4103
3232 2 31.1924 35.8603 41.6397
3233 2 30.7509 34.7952 40.5567
3234 2 32.8582 33.1382 38.0302
3235 2 33.8693 34.0568 37.1552
3236 2 32.9579 35.4511 40.5191
3237 2 34.4 34.8999 40.1894
3238 2 38.4351 33.9258 36.2918
3239 2 36.9917 34.1795 36.9043
3240 2 37.8378 36.0522 39.7223
3241 2 38.1038 34.8199 38.8162
3242 2 42.4513 35.3271 37.9378
3243 2 41.2081 34.3526 37.8655
3244 2 44.7116 35.2679 37.8519
3245 2 44.3463 34.9742 39.3577
3246 2 46.2199 34.1848 36.2681
3247 2 44.9296 34.7706 35.5999
3248 2 31.2827 36.7673 36.8423
3249 2 41.3158 34.3615 44.3458
3250 2 32.6433 40.5057 39.4845
3251 2 31.4684 41.5997 39.2909
3252 2 33.9673 36.6523 38.6247
3253 2 33.3729 37.36 37.3659
3254 2 34.1577 38.9273 38.6378
3255 2 34.9216 40.0718 39.4012
3256 2 38.0552 37.5742 36.2041
3257 2 37.4468 36.2771 36.8347
3258 2 37.6116 37.7419 38.4121
3259 2 38.6439 38.0334 39.6418
3260 2 42.4047 38.3144 36.7522
3261 2 43.7704 37.8316 36.1643
3262 2 42.8849 39.0737 38.6437
3263 2 41.3712 38.8774 39.0615
3264 2 45.1134 38.4823 38.1899
3265 2 44.3583 37.3671 38.9279
3266 2 41.5625 32.8685 44.7214
3267 2 30.6398 43.0471 37.4773
3268 2 32.7376 43.2644 38.3165
3269 2 34.3195 43.2607 38.4829
3270 2 34.1689 40.2814 36.1733
3271 2 33.5829 41.668 36.6698
3272 2 35.9825 42.5609 39.7911
3273 2 35.4583 43.9553 40.3662
3274 2 37.0762 41.2358 35.6864
3275 2 36.3528 41.8251 34.4294
3276 2 37.4628 41.1858 38.2853
3277 2 38.665 41.0258 37.2586
3278 2 40.8813 40.0893 37.1832
3279 2 40.2957 40.9323 35.9238
3280 2 36.7994 34.2349 43.9341
3281 2 29.7845 31.0239 42.0736
3282 2 37.5018 33.2963 45.0213
3283 2 30.6225 32.2033 43.7259
3284 2 31.8544 31.7004 42.9381
3285 2 35.8886 35.9975 46.3195
3286 2 34.3376 31.7877 44.861
3287 2 34.1172 32.7788 43.6584
3288 2 36.6732 37.0187 47.1919
3289 2 38.3496 30.1384 42.7326
3290 2 39.4652 31.707 43.757
3291 2 38.2806 32.5538 43.2236
3292 2 40.2358 30.683 40.4878
3293 2 34.4568 34.2913 47.1008
3294 2 42.1441 33.4771 42.6381
3295 2 41.7212 32.6951 41.3066
3296 2 34.9876 33.7517 45.7377
3297 2 45.5157 28.8149 41.2108
3298 2 30.5513 34.2532 42.8671
3299 2 32.1477 35.972 45.0059
3300 2 30.9094 35.04 44.8938
3301 2 32.5284 33.518 41.8065
3302 2 33.1281 32.1455 41.3472
3303 2 34.6512 35.4614 43.3231
3304 2 35.8648 35.9854 42.5392
3305 2 36.5762 34.1824 40.352
3306 2 35.6355 33.9933 41.5883
3307 2 39.073 34.9259 44.1247
3308 2 39.9815 35.6022 43.0385
3309 2 39.6343 35.2504 40.6802
3310 2 41.082 34.9041 41.2234
3311 2 45.249 33.8727 41.2986
3312 2 43.6927 33.6244 41.0701
3313 2 30.3167 37.9197 42.4981
3314 2 30.2505 33.3531 47.2236
3315 2 31.6642 39.8063 45.0915
3316 2 32.4872 40.6336 44.0154
3317 2 32.5899 37.0314 43.1053
3318 2 33.7083 37.4142 44.1444
3319 2 35.366 39.0253 41.9431
3320 2 35.3845 39.677 43.3381
3321 2 34.9023 36.9356 40.8741
3322 2 36.3344 37.5544 40.6069
3323 2 39.4648 40.2739 42.8019
3324 2 38.7574 38.9358 43.1938
3325 2 40.4574 37.3076 40.6138
3326 2 39.9414 38.7172 41.109
3327 2 30.284 40.8205 41.184
3328 2 32.9456 42.8992 42.6854
3329 2 32.3652 43.8597 43.7619
3330 2 33.9049 40.768 42.2883
3331 2 32.5531 41.0962 41.513
3332 2 36.6792 40.5103 40.8899
3333 2 37.0721 39.6 39.7056
3334 2 28.3337 33.8072 46.492
3335 2 30.7269 29.7855 44.0087
3336 2 31.8635 32.1192 47.6348
3337 2 31.2621 30.6657 47.8131
3338 2 39.5834 31.7844 45.9406
3339 2 33.0648 30.5399 46.3279
3340 2 36.8386 32.6293 46.9302
3341 2 36.882 29.077 45.5296
3342 2 31.477 43.6298 35.2815
3343 2 43.095 38.9593 34.5154
3344 2 39.8266 37.272 35.1016
3345 2 35.8985 39.4172 35.051
3346 2 31.2148 38.9375 35.8146
3347 2 45.8586 36.7096 36.2654
3348 2 43.2061 34.0095 34.0354
3349 2 32.5873 32.4634 35.9379
3350 2 41.1913 35.658 35.8804
3351 2 35.1403 31.4277 36.3911
3352 2 39.5373 32.2164 35.3542
3353 2 42.4481 29.7742 34.7637
3354 2 31.6173 34.5963 37.0025
3355 2 46.439 31.9307 35.8965
3356 2 33.6738 44.2087 36.4598
3357 2 36.9873 44.2005 38.3624
3358 2 29.946 34.6549 49.2379
3359 2 33.6098 30.0637 50.4521
3360 2 31.4099 34.3679 46.9671
3361 2 37.3485 31.2129 46.4291
3362 2 30.7614 44.5493 18.1615
3363 2 38.0048 44.4761 20.2804
3364 2 32.9214 43.1423 18.389
3365 2 33.4558 41.73 18.007
3366 2 37.1767 45.1731 21.4535
3367 2 29.5459 44.9658 22.8537
3368 2 34.0755 44.1411 21.2181
3369 2 33.5713 45.567 21.837
3370 2 31.8251 47.4192 23.4221
3371 2 30.3439 46.8535 23.4352
3372 2 31.8553 47.9269 34.4467
3373 2 38.6496 45.0543 34.6547
3374 2 33.7289 48.0493 21.7802
3375 2 34.3574 47.5721 23.1314
3376 2 30.7617 44.1565 25.9786
3377 2 38.9572 44.6568 36.1183
3378 2 31.8319 49.1456 26.7947
3379 2 33.3194 48.4464 27.0741
3380 2 32.9354 44.7324 25.2759
3381 2 31.8144 45.822 25.0735
3382 2 36.2119 46.9209 24.0732
3383 2 35.1483 47.4122 25.1413
3384 2 37.6496 44.9054 23.7426
3385 2 36.0759 44.8281 23.7403
3386 2 40.2495 44.8119 25.1252
3387 2 41.7281 44.8536 25.6962
3388 2 30.5693 48.3457 25.3532
3389 2 31.1036 44.3317 31.7914
3390 2 36.4696 44.774 33.5855
3391 2 31.9957 46.4139 31.4981
3392 2 32.3878 47.6761 32.377
3393 2 34.7523 46.876 27.3985
3394 2 33.5169 46.4161 26.5017
3395 2 36.5607 47.4804 28.2252
3396 2 35.7796 46.8359 29.5246
3397 2 37.0458 45.3534 28.6286
3398 2 37.6359 45.3307 32.7051
3399 2 40.9008 44.9217 29.5769
3400 2 41.6674 45.8718 30.5795
3401 2 36.4703 46.2074 35.2213
3402 2 36.8833 48.3362 25.8517
3403 2 38.2523 48.4709 26.5678
3404 2 29.9364 46.2242 35.1763
3405 2 35.6831 46.3819 31.9735
3406 2 32.4207 45.9339 35.6613
3407 2 34.2365 46.6771 31.3677
3408 2 35.693 45.2657 42.2973
3409 2 30.4436 45.2304 38.2669
3410 2 34.2505 44.6416 42.2446
3411 2 34.5409 45.3396 35.8076
3412 2 30.9902 44.0824 40.2875
3413 2 37.7142 43.2433 37.4119
3414 2 36.6032 45.451 36.5822
3415 2 31.5054 46.6737 36.7023
3416 2 32.1458 48.1761 30.2717
3417 2 32.3719 49.0186 28.3831
3418 2 30.8874 48.3403 29.3007
