3418
Lattice="60.0 0.0 0.0 0.0 60.0 0.0 0.0 0.0 60.0" Properties=species:S:1:pos:R:3 pbc="T T T"
O       27.16950000      17.08260000      18.72370000
O       22.85820000      15.62400000      23.31710000
O       26.64730000      15.74010000      22.48690000
O       25.04640000      13.73140000      23.30100000
O       28.19420000      12.94360000      23.42210000
O       31.06380000      13.80280000      23.30100000
O       25.58080000      14.98090000      32.53390000
O       23.25150000      12.83920000      27.60740000
O       28.35970000      12.45560000      26.57700000
O       18.75080000      15.78120000      26.20450000
O       21.47670000      14.72720000      25.89070000
O       25.55120000      13.31700000      26.02270000
O       23.61460000      13.53010000      31.55530000
O       24.78130000      11.58660000      29.82780000
O       29.41210000      13.49450000      30.34710000
O       18.27530000      15.87620000      30.78130000
O       22.99450000      14.96320000      29.37240000
O       27.08720000      12.90020000      29.09440000
O       22.45530000      15.37610000      33.51990000
O       19.88170000      15.03390000      35.65730000
O       30.97910000      11.29230000      27.01180000
O       29.67960000      14.67900000      25.67690000
O       30.99520000      11.41720000      29.94070000
O       30.48840000      15.83450000      29.57820000
O       29.68420000      14.79290000      32.75280000
O       21.30700000      16.08910000      38.02850000
O       26.16070000      15.19630000      36.96610000
O       25.56950000      14.55100000      40.59250000
O       26.19210000      13.50020000      34.88140000
O       28.98420000      12.89880000      34.50770000
O       28.41170000      14.13020000      40.76610000
O       24.46680000      29.27580000      11.22210000
O       31.43100000      25.14520000      11.64720000
O       28.34920000      30.80370000      10.97950000
O       25.22220000      23.07640000      13.92130000
O       29.14690000      25.05900000      13.00760000
O       24.51510000      26.50280000      12.37920000
O       26.81150000      28.66050000      10.14740000
O       27.63100000      24.98060000      22.01260000
O       28.34040000      16.08650000      16.30780000
O       21.55740000      21.47860000      17.17420000
O       24.45130000      19.05370000      16.07320000
O       29.12310000      18.67490000      15.69110000
O       30.33910000      21.18910000      17.94230000
O       18.57730000      24.67380000      16.95910000
O       23.09930000      21.18560000      14.88890000
O       23.97140000      25.88330000      17.51120000
O       28.02610000      22.90320000      14.35030000
O       29.11040000      23.37210000      16.81800000
O       16.78300000      29.61150000      16.74810000
O       20.84690000      25.02350000      14.95950000
O       20.23940000      27.63570000      15.67220000
O       23.66730000      25.16140000      14.79240000
O       25.13410000      28.10000000      15.72540000
O       27.22340000      26.78100000      12.25190000
O       27.63010000      28.30710000      14.50340000
O       22.62330000      17.78850000      20.96900000
O       25.34850000      17.57020000      20.94590000
O       28.60180000      15.55190000      20.49070000
O       18.05180000      19.37800000      20.22200000
O       20.03100000      21.45880000      20.47710000
O       23.00470000      19.63850000      18.53530000
O       24.54680000      21.66070000      19.51010000
O       26.99650000      19.66270000      17.22320000
O       28.54440000      20.00420000      21.29070000
O       16.40030000      23.55970000      20.55230000
O       18.95720000      23.76570000      19.52770000
O       21.29420000      24.45560000      20.78120000
O       22.90200000      23.69730000      18.62630000
O       24.93060000      24.72330000      21.35470000
O       27.24690000      21.51960000      19.31450000
O       28.45190000      23.99700000      19.49870000
O       16.06440000      27.68230000      20.11770000
O       15.54820000      30.39020000      20.60080000
O       17.74460000      27.16090000      17.59840000
O       19.71590000      28.18380000      19.24550000
O       22.03680000      27.84630000      17.80650000
O       25.30780000      28.75930000      20.24880000
O       26.07050000      26.36090000      19.21580000
O       28.75500000      27.55620000      19.08880000
O       18.38880000      18.19920000      22.81300000
O       22.90030000      19.74800000      22.83140000
O       26.51450000      19.12440000      23.00660000
O       15.88360000      20.77660000      21.44740000
O       20.15690000      23.07980000      22.88550000
O       24.29120000      22.04190000      22.18910000
O       28.32500000      23.03670000      23.96160000
O       16.00810000      25.79560000      22.52150000
O       18.85880000      28.71830000      21.75260000
O       22.71570000      26.35120000      22.16090000
O       20.12160000      17.82890000      25.07900000
O       27.74910000      16.58660000      24.91520000
O       29.34770000      18.62050000      23.82530000
O       23.41100000      26.11140000      24.80180000
O       27.90100000      24.89080000      25.99820000
O       14.41210000      29.46410000      24.87640000
O       16.39040000      28.53870000      23.22400000
O       20.65040000      29.67740000      25.12260000
O       24.01100000      28.69460000      24.42080000
O       26.65130000      29.29340000      24.37170000
O       14.68960000      31.32610000      18.02310000
O       14.90470000      31.81460000      22.88200000
O       30.90980000      22.89840000      19.98950000
O       31.11360000      21.04400000      21.99690000
O       28.34510000      28.78880000      36.10440000
O       24.38700000      17.90070000      24.40920000
O       16.58100000      19.75520000      23.97100000
O       26.24590000      26.59460000      32.16460000
O       21.23830000      21.18770000      24.45470000
O       25.97360000      21.39290000      24.35830000
O       24.01290000      29.38860000      35.41660000
O       14.42320000      24.74250000      24.80380000
O       17.80660000      24.22750000      23.80640000
O       20.24220000      27.17900000      23.50360000
O       23.03780000      26.81760000      34.96170000
O       17.91570000      25.90350000      34.08070000
O       17.39250000      28.52170000      34.90240000
O       14.00290000      25.97560000      34.80610000
O       17.63040000      17.47420000      28.30630000
O       20.81950000      16.69180000      29.45360000
O       25.74900000      15.17250000      28.08980000
O       28.41390000      17.47750000      29.59690000
O       15.68050000      18.43870000      26.39660000
O       15.30270000      20.46460000      28.41750000
O       18.95080000      20.27970000      25.66710000
O       20.46110000      21.42510000      28.30370000
O       21.98310000      17.30380000      26.98980000
O       24.19080000      18.82960000      27.22930000
O       26.76140000      17.60340000      27.24270000
O       28.42260000      20.06060000      27.91600000
O       12.33160000      24.18500000      26.80060000
O       16.03650000      22.45860000      24.95050000
O       16.06850000      24.80130000      28.75000000
O       17.80830000      22.40580000      27.00540000
O       20.07530000      24.22430000      27.44350000
O       23.60930000      21.15790000      25.76850000
O       24.35010000      22.86100000      27.68440000
O       26.87430000      21.98930000      27.06880000
O       29.15680000      23.89880000      28.24030000
O       12.28530000      26.84030000      27.47830000
O       14.79210000      27.01740000      26.38770000
O       17.03040000      27.82530000      27.69760000
O       17.52130000      25.19850000      26.30540000
O       20.65350000      28.26450000      27.91380000
O       20.99250000      26.31610000      25.97980000
O       23.47470000      28.08240000      28.90730000
O       25.19780000      25.06970000      26.46120000
O       27.44350000      28.95540000      27.76660000
O       16.59700000      18.03790000      32.14150000
O       19.76820000      16.03050000      33.05660000
O       24.08180000      17.12080000      30.97790000
O       27.75570000      16.45030000      31.94730000
O       14.52030000      19.32290000      30.72840000
O       13.29910000      22.00990000      31.16540000
O       17.96880000      20.06480000      29.25520000
O       20.33440000      20.98620000      31.79140000
O       21.49510000      18.52470000      31.51130000
O       23.91430000      21.64280000      31.52150000
O       24.84750000      19.52310000      29.84860000
O       27.43010000      19.76400000      30.88320000
O       13.43640000      25.88470000      32.14860000
O       14.08360000      22.91350000      28.69970000
O       16.22900000      24.06920000      32.81020000
O       18.11610000      23.29190000      29.83080000
O       20.70550000      24.54050000      30.68550000
O       22.41420000      22.74240000      29.56760000
O       25.35230000      24.05190000      30.83340000
O       27.63440000      22.42950000      30.22940000
O       28.56650000      23.75440000      32.37890000
O       11.36810000      27.32180000      30.08590000
O       13.41320000      28.82160000      32.50210000
O       15.56690000      26.82510000      30.53430000
O       18.10530000      26.69590000      31.55640000
O       19.00960000      26.32830000      28.97760000
O       19.78630000      28.82580000      31.35380000
O       21.75110000      27.04890000      30.74910000
O       23.68080000      27.64040000      32.47330000
O       25.43420000      26.16410000      28.92890000
O       27.75240000      27.44910000      30.05340000
O       13.42520000      27.98860000      36.74880000
O       24.08310000      17.83240000      33.87720000
O       27.50870000      25.31480000      35.96290000
O       15.50860000      18.38370000      34.80380000
O       16.28460000      20.91020000      34.17810000
O       18.86190000      18.44080000      33.83080000
O       20.58710000      20.19150000      35.00850000
O       23.03480000      20.40100000      33.81040000
O       26.47620000      23.62300000      34.17600000
O       26.80590000      18.67220000      33.45780000
O       27.32810000      21.12120000      34.85480000
O       13.11390000      23.47190000      36.10360000
O       14.20370000      22.63190000      33.79500000
O       16.13350000      25.01640000      36.28000000
O       17.73660000      21.47060000      31.86280000
O       19.79680000      24.01550000      35.19220000
O       21.34360000      23.31530000      33.04950000
O       18.01420000      29.09760000      25.47260000
O       22.93960000      29.75900000      26.66130000
O       25.46030000      30.82610000      27.01160000
O       23.71960000      30.59570000      30.17450000
O       15.69100000      29.95690000      33.38470000
O       30.78510000      21.72020000      24.73140000
O       28.32000000      27.20250000      33.99810000
O       29.59910000      25.45080000      30.43230000
O       30.04680000      18.82460000      34.15650000
O       29.86890000      22.30650000      34.31230000
O       29.55230000      31.37450000      35.13840000
O       19.09090000      16.64650000      39.87410000
O       24.15390000      16.23260000      38.74500000
O       28.64470000      15.21950000      38.18990000
O       16.58380000      21.27060000      38.45360000
O       17.75290000      18.66530000      38.54510000
O       19.94420000      20.26250000      39.19350000
O       21.67740000      18.71610000      36.93060000
O       24.76470000      20.91610000      41.02610000
O       24.36770000      18.10110000      36.54630000
O       27.21560000      19.78050000      39.15820000
O       13.97220000      22.34170000      38.55220000
O       14.52080000      24.42530000      40.65390000
O       17.45780000      22.57890000      36.07440000
O       19.70910000      23.89250000      38.58240000
O       21.03240000      21.87730000      37.26800000
O       23.76950000      24.79610000      39.10290000
O       25.60250000      20.50970000      37.00580000
O       29.46250000      24.49290000      40.51580000
O       14.63710000      26.06170000      38.35020000
O       17.03080000      26.84070000      39.38550000
O       18.61120000      26.20280000      37.18980000
O       21.05310000      27.10760000      39.07310000
O       21.85720000      25.17520000      37.08190000
O       22.91230000      29.04040000      39.46070000
O       24.96300000      27.21630000      39.55220000
O       28.38430000      28.37490000      41.05220000
O       26.44870000      16.81760000      42.11570000
O       19.82580000      21.05190000      42.44080000
O       20.48740000      18.58400000      41.36890000
O       22.89450000      18.37560000      42.77440000
O       24.54790000      18.14310000      40.60430000
O       27.39520000      20.44620000      41.84890000
O       18.13110000      22.34050000      40.40370000
O       19.97350000      24.84220000      42.81720000
O       22.63730000      21.13190000      42.76780000
O       26.36760000      24.13700000      44.37670000
O       25.78210000      23.02450000      39.76840000
O       26.97810000      24.54480000      41.77230000
O       14.21010000      26.95900000      42.25610000
O       16.99600000      27.01990000      43.21720000
O       17.58210000      24.97370000      41.45490000
O       21.59250000      28.51780000      43.77580000
O       21.42310000      24.87220000      40.51770000
O       24.08980000      27.39230000      43.95190000
O       26.11760000      27.10800000      42.11420000
O       27.91110000      27.96660000      44.33730000
O       25.10710000      17.59820000      44.36790000
O       20.06870000      22.84290000      44.58680000
O       22.93450000      22.43040000      45.36710000
O       25.81620000      21.56090000      45.04600000
O       28.15070000      22.33080000      46.82080000
O       27.95440000      27.64920000      48.67810000
O       19.22320000      26.91900000      44.80560000
O       23.91120000      24.92850000      45.21200000
O       24.80710000      25.89890000      47.53230000
O       27.41810000      25.92270000      46.16170000
O       20.61070000      27.75310000      35.84810000
O       17.87490000      17.34440000      36.14630000
O       27.58160000      17.19500000      35.51390000
O       23.45990000      21.92040000      36.10750000
O       23.73960000      24.04530000      34.33800000
O       19.22290000      29.15260000      39.37530000
O       27.09380000      28.57070000      38.61380000
O       28.92000000      17.98290000      38.01880000
O       28.80380000      21.86450000      38.15400000
O       29.29910000      24.49230000      37.78630000
O       29.99700000      25.37860000      46.30480000
O       30.24660000      29.22040000      38.16330000
O       29.01090000      25.54790000      50.04300000
O       30.66540000      34.01980000      11.85200000
O       24.94280000      31.43430000      13.04090000
O       28.72060000      33.37140000      13.79590000
O       23.15330000      37.02320000      12.97960000
O       27.12480000      37.56500000      13.26560000
O       16.88490000      32.07370000      15.24290000
O       20.91470000      29.81590000      13.97970000
O       20.48090000      32.57880000      16.85530000
O       23.41310000      30.16300000      14.84450000
O       25.27370000      40.45730000      21.16030000
O       23.10150000      31.96660000      16.83970000
O       27.34990000      31.05770000      14.40390000
O       27.29450000      31.59540000      17.12960000
O       19.44440000      32.25100000      14.30730000
O       19.09950000      34.69470000      13.05440000
O       24.14230000      34.10280000      13.37750000
O       22.84900000      35.06200000      15.76470000
O       26.58550000      34.97490000      14.19270000
O       28.65510000      36.51160000      16.79430000
O       19.45420000      37.75300000      16.65830000
O       20.70200000      36.46440000      14.45730000
O       24.48160000      37.98650000      17.16670000
O       24.94300000      38.55980000      14.53980000
O       27.13330000      40.68730000      15.47640000
O       25.62070000      43.51760000      16.14790000
O       27.59740000      44.51310000      17.92430000
O       22.29640000      41.91580000      24.07370000
O       17.58490000      32.09270000      19.85210000
O       19.02930000      30.59770000      18.12230000
O       20.94260000      30.63300000      21.30170000
O       22.45780000      30.40780000      19.01380000
O       18.72310000      42.90280000      22.57090000
O       23.72770000      32.75650000      20.14290000
O       25.41760000      29.70530000      17.71420000
O       28.75920000      31.81790000      21.48550000
O       16.46270000      33.50870000      17.73080000
O       17.04390000      37.21200000      20.47930000
O       20.02030000      34.51500000      18.72120000
O       21.75390000      36.58700000      20.85270000
O       22.79550000      34.82700000      18.49570000
O       24.44100000      36.15040000      20.36120000
O       25.32910000      33.26430000      17.85440000
O       29.14910000      35.00170000      20.35610000
O       16.62920000      40.62700000      22.86800000
O       17.81910000      35.98820000      18.10900000
O       19.92570000      40.06370000      18.75950000
O       21.82540000      37.95010000      18.31300000
O       22.70540000      41.11620000      21.48340000
O       26.04100000      35.68190000      16.84360000
O       25.35120000      40.44230000      18.41860000
O       20.03990000      44.36440000      20.41670000
O       21.47770000      42.32230000      19.37490000
O       24.41830000      44.30990000      21.01320000
O       24.05420000      42.85990000      18.55180000
O       27.31160000      42.17040000      21.01110000
O       25.73720000      37.90920000      22.08270000
O       19.54950000      31.89210000      23.77010000
O       23.10150000      29.00930000      21.90180000
O       26.67110000      30.25630000      21.94300000
O       21.11490000      38.98610000      21.87700000
O       17.38410000      35.51690000      22.52590000
O       19.67650000      33.24570000      21.10830000
O       23.43120000      33.73050000      22.78980000
O       26.50540000      34.68420000      21.27870000
O       15.00650000      38.44740000      21.78010000
O       18.51160000      39.48960000      21.08170000
O       17.06850000      33.07750000      23.85320000
O       21.43110000      33.57990000      24.53070000
O       25.84260000      32.60020000      22.86130000
O       15.38850000      36.73550000      24.06620000
O       20.21940000      35.31020000      22.77800000
O       24.09040000      36.31180000      23.72050000
O       19.68360000      40.78750000      23.97180000
O       24.78450000      39.64930000      25.13420000
O       20.73220000      44.22090000      23.97590000
O       24.24640000      44.36410000      25.91780000
O       30.48690000      29.95960000      12.46730000
O       30.93710000      33.25870000      15.37560000
O       28.99730000      41.31620000      22.79860000
O       29.67310000      37.67920000      14.48620000
O       29.22670000      32.28880000      18.86580000
O       30.95340000      30.50330000      22.11860000
O       15.20470000      34.24450000      25.76300000
O       27.07180000      44.23870000      35.45270000
O       24.23280000      41.29060000      34.46240000
O       27.14150000      32.19270000      25.15960000
O       22.29910000      42.45540000      36.02880000
O       18.70980000      36.00560000      25.31170000
O       21.44280000      42.94050000      33.41590000
O       27.62490000      36.12750000      23.31660000
O       18.85850000      44.42160000      37.44690000
O       16.33840000      40.55460000      25.61200000
O       17.16450000      42.43590000      34.03660000
O       28.80490000      39.39800000      24.59230000
O       14.94680000      40.69510000      34.50040000
O       27.09380000      41.30600000      35.23380000
O       27.85280000      42.91350000      24.76060000
O       26.34460000      38.79460000      34.66230000
O       11.72960000      29.33390000      26.11000000
O       12.55680000      31.18450000      27.98600000
O       14.92040000      31.64780000      26.69400000
O       24.83160000      39.14310000      36.99350000
O       17.63970000      31.29350000      27.05630000
O       21.37000000      31.90310000      29.37920000
O       21.84520000      39.55590000      34.58430000
O       24.72810000      33.40740000      27.62880000
O       19.34450000      40.84420000      34.99720000
O       28.36780000      31.50240000      28.62890000
O       12.57820000      36.42500000      28.61420000
O       15.13870000      36.09260000      27.77120000
O       15.75480000      35.69700000      30.36330000
O       18.86030000      33.82610000      26.81610000
O       19.46400000      34.66620000      29.37530000
O       22.07790000      33.49300000      27.26870000
O       22.33300000      36.24150000      27.79960000
O       24.69440000      35.83360000      26.38500000
O       26.95840000      36.06230000      28.08460000
O       16.77690000      37.85670000      26.49770000
O       19.14710000      38.85640000      27.72420000
O       20.73940000      37.51800000      25.96600000
O       21.52590000      38.58380000      29.27200000
O       22.43490000      38.49680000      24.19330000
O       23.84270000      39.62500000      27.73320000
O       26.89320000      37.77530000      25.44490000
O       27.39080000      39.42280000      28.08330000
O       15.63470000      42.20400000      27.69320000
O       18.18870000      43.77880000      28.04240000
O       18.81290000      41.37690000      26.60880000
O       21.47190000      43.28290000      28.43480000
O       23.05370000      41.98700000      26.66110000
O       25.01180000      42.34470000      29.19260000
O       26.27480000      41.55130000      26.61250000
O       28.58670000      45.10560000      28.21000000
O       12.11550000      29.94780000      30.42230000
O       12.12950000      32.48060000      31.51810000
O       15.37220000      29.41460000      29.39960000
O       16.49060000      31.14070000      31.04420000
O       18.87540000      30.52770000      29.46320000
O       18.23640000      38.38490000      35.24660000
O       22.04950000      32.70690000      33.73930000
O       26.23280000      31.60870000      33.05750000
O       26.14980000      31.88430000      30.27530000
O       29.05020000      31.20280000      32.41840000
O       11.58970000      33.70270000      29.06790000
O       13.97370000      36.84100000      34.16760000
O       14.92000000      33.37510000      31.58750000
O       17.00870000      34.51580000      33.29970000
O       18.37810000      33.26490000      31.35240000
O       20.19450000      36.10250000      32.58890000
O       21.51600000      33.85280000      31.33010000
O       23.74970000      35.30880000      31.80540000
O       25.65110000      34.57300000      30.11740000
O       27.38230000      36.15850000      31.72650000
O       13.52740000      37.20720000      31.21840000
O       15.14300000      39.37860000      32.10290000
O       18.27740000      36.79770000      30.73650000
O       20.87340000      40.58030000      32.20880000
O       22.39380000      37.67180000      31.75990000
O       24.68240000      39.19360000      32.47770000
O       27.00030000      38.91930000      30.87610000
O       28.74440000      41.07040000      31.28790000
O       16.35190000      41.04190000      30.24830000
O       16.57340000      43.37350000      31.49960000
O       18.70190000      39.64970000      30.94920000
O       20.00160000      45.25500000      33.02400000
O       22.36920000      41.12900000      29.92050000
O       23.55730000      44.45840000      32.41250000
O       27.56210000      43.19690000      29.98380000
O       27.98700000      45.41020000      31.52880000
O       12.13110000      29.98120000      34.76130000
O       16.55170000      37.28960000      33.39280000
O       14.30310000      31.64700000      35.10810000
O       28.64230000      37.30700000      35.30600000
O       17.44690000      29.70120000      37.35530000
O       27.23330000      34.17740000      33.69830000
O       19.72680000      29.60940000      33.98820000
O       20.36910000      31.78030000      35.71610000
O       23.49950000      36.98230000      37.99510000
O       23.67440000      30.66070000      33.04070000
O       23.37560000      34.97530000      34.42000000
O       26.38560000      30.65120000      35.50110000
O       21.93930000      36.90450000      35.68740000
O       19.66270000      35.27850000      35.08410000
O       14.52550000      34.40850000      35.46860000
O       17.12430000      34.81440000      36.45490000
O       29.93940000      29.74630000      30.20100000
O       30.95800000      36.89930000      33.66880000
O       31.32880000      40.85610000      30.28050000
O       14.77700000      30.25710000      37.41680000
O       15.05490000      31.78140000      39.86380000
O       27.39420000      40.26980000      44.88220000
O       20.68510000      31.48360000      39.94700000
O       21.93360000      29.90460000      37.06590000
O       24.70150000      32.57370000      37.86810000
O       26.60410000      37.69260000      45.87830000
O       29.45670000      31.87080000      39.08920000
O       13.82090000      33.96930000      40.21160000
O       15.41650000      35.31510000      42.00660000
O       18.18720000      32.40470000      37.34290000
O       20.22480000      35.13510000      39.03790000
O       21.87140000      33.12540000      38.02500000
O       24.30180000      34.90020000      41.58490000
O       25.06630000      34.99170000      38.97810000
O       27.41100000      36.10190000      39.57020000
O       16.31160000      37.09240000      38.24170000
O       16.56640000      37.72900000      40.93840000
O       19.12210000      37.25310000      37.70700000
O       19.99690000      39.65450000      38.70000000
O       23.29710000      37.46100000      40.68540000
O       23.52760000      40.22380000      40.36410000
O       28.44300000      38.03230000      37.98570000
O       30.66130000      38.36340000      39.44990000
O       18.38190000      41.54420000      37.50730000
O       21.58780000      44.00250000      40.32090000
O       22.48220000      40.40390000      37.79620000
O       24.12940000      44.21710000      41.54940000
O       27.14030000      40.40680000      37.79140000
O       28.15380000      42.21530000      39.46190000
O       15.50200000      29.18890000      40.65700000
O       18.27300000      31.07300000      43.74270000
O       17.94140000      29.12970000      41.79070000
O       22.19990000      32.70210000      45.01080000
O       22.38900000      30.28240000      41.81550000
O       22.78670000      38.99280000      44.40300000
O       24.99650000      30.75020000      42.40930000
O       26.04410000      30.94160000      39.65600000
O       28.06990000      31.51750000      44.22710000
O       16.81620000      32.78420000      42.03410000
O       18.57880000      33.12590000      39.95580000
O       20.63700000      35.42950000      43.53630000
O       22.20380000      33.35200000      42.26790000
O       24.81170000      37.22360000      43.76140000
O       26.29840000      32.95710000      41.75700000
O       27.54770000      34.52090000      43.51440000
O       19.01900000      38.75620000      41.30010000
O       20.48340000      40.14430000      43.37590000
O       20.74530000      36.70390000      41.19390000
O       24.84710000      41.06600000      44.67710000
O       27.03590000      36.82890000      42.15330000
O       28.65570000      38.76220000      43.03680000
O       21.14240000      41.48220000      40.95390000
O       25.04730000      41.80090000      41.99990000
O       28.36600000      44.84350000      42.01620000
O       19.07020000      29.71620000      46.00560000
O       28.50450000      35.73200000      46.58190000
O       21.97640000      30.10300000      46.04620000
O       23.65590000      28.52060000      47.96450000
O       25.72480000      29.58630000      44.86240000
O       25.77000000      33.84660000      45.49670000
O       26.32450000      31.35540000      46.93330000
O       19.40360000      33.31360000      44.80400000
O       22.97430000      35.41650000      45.08100000
O       24.84250000      36.00760000      47.25480000
O       16.23450000      39.50710000      36.82480000
O       25.54140000      34.62810000      35.88860000
O       27.76630000      32.49130000      37.10290000
O       13.85610000      35.51810000      37.99420000
O       28.87090000      42.57510000      43.87680000
O       29.67480000      34.63050000      39.30580000
O       30.50740000      38.48670000      45.30460000
O       30.64240000      43.00210000      38.47940000
O       28.93980000      30.98790000      41.55320000
O       26.00040000      29.52240000      49.08850000
O       29.11260000      35.11690000      49.45240000
O       27.14550000      44.86850000      20.66190000
O       22.17980000      45.59520000      22.06500000
O       25.60440000      43.99950000      23.52090000
O       23.59250000      47.50970000      23.62410000
O       26.60300000      46.51740000      24.23110000
O       28.07470000      47.34010000      37.46280000
O       20.30280000      45.07720000      26.54190000
O       22.59450000      46.60070000      26.28630000
O       24.30260000      47.00100000      28.51420000
O       26.30200000      45.94850000      26.94530000
O       29.41770000      47.74990000      28.49470000
O       18.70870000      45.06430000      30.62040000
O       23.52300000      44.65130000      29.68130000
O       24.62610000      47.96580000      33.07190000
O       27.81380000      48.02180000      30.66940000
O       29.13100000      48.57970000      33.20010000
O       25.08050000      48.72300000      30.58870000
O       18.08770000      44.99930000      34.87800000
O       22.46080000      46.39990000      33.97530000
O       25.93750000      45.48250000      33.32070000
O       21.70620000      44.55350000      37.62250000
O       26.04860000      45.59960000      37.64060000
O       26.51760000      44.32840000      40.06170000
O       23.43680000      46.51890000      36.55890000
O       30.61120000      46.17560000      38.45880000
O       30.99500000      44.79950000      40.95010000
O       29.92650000      14.51190000      18.31380000
O       32.56090000      15.58770000      18.25050000
O       38.01390000      16.42560000      21.89190000
O       34.24380000      13.85970000      19.92050000
O       37.53610000      15.21530000      24.25870000
O       33.50560000      12.91570000      22.39260000
O       40.17480000      15.13210000      34.88660000
O       33.75130000      11.95330000      26.17430000
O       35.17440000      12.29170000      28.64410000
O       37.60890000      13.96180000      34.41750000
O       34.98820000      13.96300000      24.74760000
O       39.18530000      15.32330000      26.54140000
O       40.97300000      14.34120000      28.49680000
O       32.86660000      11.69320000      32.08830000
O       35.20430000      10.93740000      31.07960000
O       37.28080000      12.78370000      31.75950000
O       33.44950000      14.14170000      33.17270000
O       33.88130000      14.88200000      28.55270000
O       36.93750000      15.30870000      30.84090000
O       43.60290000      15.44210000      29.17040000
O       31.14400000      11.16570000      34.34630000
O       36.81700000      13.51350000      37.16440000
O       30.38580000      14.55020000      36.21420000
O       34.23070000      13.91810000      37.95980000
O       37.34130000      16.21980000      37.80760000
O       33.05960000      15.20580000      40.36080000
O       32.68740000      13.25420000      35.73810000
O       34.66450000      31.46990000      10.71240000
O       33.93460000      24.83880000      12.92500000
O       36.63640000      24.07990000      12.62240000
O       32.14470000      27.91770000      11.97320000
O       36.22710000      29.14110000      11.37900000
O       33.80860000      17.60740000      16.68680000
O       31.74080000      19.36770000      16.55870000
O       44.55940000      26.98880000      22.51460000
O       32.36920000      21.12080000      14.57330000
O       34.73220000      19.37950000      14.53670000
O       36.34910000      20.82660000      16.19360000
O       40.78940000      20.41260000      16.52150000
O       29.50010000      20.67780000      13.68100000
O       31.30720000      25.12380000      16.66160000
O       33.22490000      23.70660000      15.30760000
O       35.53690000      24.31350000      16.83460000
O       37.86660000      22.28810000      14.22280000
O       40.19640000      22.95190000      17.44480000
O       29.92960000      26.98750000      15.00240000
O       33.17380000      27.89610000      17.24610000
O       35.65360000      26.97250000      13.00490000
O       36.34910000      28.81480000      15.07650000
O       38.07710000      25.03220000      16.46630000
O       38.28510000      27.74320000      16.63430000
O       39.68030000      24.58640000      14.39390000
O       43.37290000      27.79980000      16.19470000
O       31.68440000      17.77320000      19.61360000
O       35.88040000      16.12300000      20.31570000
O       40.68950000      15.92670000      21.36440000
O       29.34160000      18.84460000      18.96900000
O       41.48240000      24.83450000      21.45290000
O       33.29520000      19.68570000      20.69690000
O       35.99440000      18.05080000      18.32500000
O       35.59530000      21.09310000      22.15650000
O       38.31090000      19.56610000      17.63340000
O       41.57460000      19.98230000      21.20710000
O       46.38040000      20.91480000      22.77580000
O       33.32020000      24.11990000      20.45730000
O       35.13430000      20.81110000      18.76760000
O       35.90710000      23.10110000      20.14710000
O       39.16630000      20.55480000      20.09710000
O       39.27080000      23.20250000      20.82330000
O       42.43360000      21.40620000      18.92310000
O       44.71390000      23.10470000      19.15780000
O       31.28160000      26.27430000      19.20510000
O       37.60930000      25.23010000      22.23130000
O       32.31750000      27.98660000      21.05030000
O       34.49030000      26.04400000      18.85840000
O       36.23530000      27.15460000      20.72080000
O       37.96770000      24.87260000      19.18000000
O       39.68210000      26.72410000      20.40660000
O       41.77270000      24.90240000      16.21920000
O       43.30230000      26.52770000      20.11320000
O       44.38390000      25.31290000      17.76250000
O       30.33110000      17.15280000      21.87630000
O       34.39860000      17.54420000      22.05910000
O       37.09190000      19.04430000      21.15230000
O       41.99110000      17.79750000      22.92120000
O       32.65450000      27.38030000      23.73470000
O       33.59960000      23.06570000      23.03370000
O       36.76740000      21.64250000      24.51340000
O       42.05530000      21.46100000      23.42990000
O       45.94030000      23.32570000      21.67100000
O       28.55050000      27.61850000      21.81210000
O       40.59460000      17.43130000      25.32830000
O       33.41870000      20.16930000      24.69220000
O       39.55180000      21.32780000      24.58020000
O       44.10960000      19.41520000      23.58870000
O       35.92690000      24.03730000      23.92000000
O       41.85770000      24.32560000      24.22510000
O       30.28350000      28.64040000      24.08550000
O       39.66210000      28.39620000      24.90600000
O       47.43290000      27.11270000      23.05620000
O       30.67890000      29.09150000      17.58810000
O       37.27130000      28.91430000      18.91900000
O       41.58460000      28.45970000      19.17600000
O       39.58930000      28.86620000      22.27010000
O       46.88340000      30.13970000      23.06210000
O       32.41480000      16.18690000      23.23990000
O       35.19120000      16.40910000      26.07840000
O       46.63670000      28.68550000      35.03620000
O       35.91860000      18.45450000      24.16110000
O       46.70800000      26.03970000      32.36340000
O       41.38260000      28.43280000      34.26660000
O       32.52470000      24.85190000      24.85760000
O       42.59250000      25.91060000      34.26510000
O       44.98850000      24.67750000      23.98440000
O       39.76500000      27.99030000      36.37580000
O       48.24620000      24.89480000      21.58170000
O       34.68540000      28.30060000      25.33780000
O       36.78330000      25.23220000      32.63330000
O       44.24970000      29.30370000      23.81700000
O       37.04080000      27.91270000      36.18540000
O       31.67340000      15.68610000      27.18450000
O       37.05640000      16.15700000      28.20140000
O       39.70280000      15.73890000      30.42660000
O       44.35430000      17.78660000      27.98170000
O       30.40470000      19.43650000      26.21340000
O       32.27860000      19.38560000      28.33470000
O       32.78600000      17.56740000      25.56400000
O       37.14340000      20.13760000      27.38520000
O       38.37930000      18.99690000      25.23220000
O       40.49950000      18.85220000      29.78900000
O       41.79430000      18.80910000      27.36610000
O       43.07620000      21.19500000      27.78240000
O       45.60180000      18.86630000      25.73720000
O       32.52910000      27.45540000      33.99470000
O       31.47150000      23.35140000      26.87720000
O       34.48990000      20.64930000      27.18640000
O       35.54960000      24.80200000      28.36750000
O       39.66260000      23.76510000      25.66300000
O       39.70400000      23.93030000      28.32620000
O       43.71760000      23.18400000      26.11060000
O       44.09680000      25.69650000      27.34990000
O       46.42890000      21.70500000      25.59340000
O       47.70880000      23.88970000      27.27480000
O       28.35850000      27.54010000      25.60920000
O       31.97440000      29.16140000      36.06880000
O       32.52120000      29.22430000      29.12280000
O       34.93200000      25.61440000      25.87520000
O       36.20740000      28.63570000      28.30380000
O       38.52430000      26.06840000      24.69790000
O       40.65180000      26.49310000      28.05970000
O       42.02160000      26.74120000      25.64490000
O       43.80520000      29.58520000      29.69710000
O       46.82120000      26.01710000      25.54720000
O       46.37640000      28.52460000      26.72610000
O       32.75910000      15.86940000      31.05940000
O       35.79300000      15.80440000      33.26610000
O       40.64190000      17.04000000      33.08520000
O       45.04950000      17.52770000      32.29670000
O       32.75940000      18.65690000      30.90200000
O       31.22690000      20.84600000      32.38950000
O       33.97180000      21.16250000      31.00930000
O       36.77670000      20.86180000      30.86330000
O       37.73650000      18.53540000      29.64170000
O       40.66020000      20.98360000      31.53480000
O       42.54610000      17.19650000      31.10610000
O       44.14160000      20.61460000      32.05630000
O       44.94020000      20.08770000      29.44190000
O       30.59740000      21.11500000      29.55540000
O       32.44180000      25.28150000      31.62930000
O       33.63040000      22.72000000      28.67620000
O       34.41900000      23.52800000      32.59920000
O       37.30250000      22.56110000      28.73740000
O       40.60510000      24.56030000      33.05570000
O       41.67900000      22.62260000      29.61190000
O       44.13510000      23.94340000      30.11550000
O       46.35390000      22.50330000      29.28730000
O       47.33830000      23.32740000      31.93060000
O       30.33770000      27.48440000      32.33310000
O       33.51050000      26.70540000      29.53460000
O       34.10070000      29.25100000      32.74270000
O       37.72620000      26.29640000      28.83870000
O       39.03360000      26.03350000      31.30790000
O       42.90340000      26.96660000      29.57770000
O       44.02860000      26.75810000      32.11580000
O       45.93360000      25.93700000      29.39670000
O       48.36300000      27.65040000      30.92760000
O       48.80930000      25.20610000      29.58330000
O       31.29880000      16.43520000      34.34040000
O       45.57160000      23.32840000      34.11740000
O       39.62610000      17.27850000      36.69300000
O       41.95830000      23.64930000      36.00690000
O       30.25710000      19.97890000      36.74630000
O       43.08320000      23.22930000      32.57810000
O       33.91490000      17.22050000      34.70590000
O       34.21470000      19.76670000      36.06190000
O       38.04180000      17.82950000      32.64930000
O       39.01100000      19.66890000      35.30070000
O       38.37650000      23.78490000      34.49330000
O       41.98310000      19.53770000      33.48260000
O       44.75100000      21.32400000      35.89960000
O       46.13210000      19.57620000      33.80490000
O       31.48270000      23.40910000      36.35660000
O       38.39660000      21.37380000      33.07000000
O       34.04670000      22.50090000      35.12710000
O       33.63990000      25.65450000      35.84110000
O       29.63360000      31.02920000      25.58550000
O       33.67750000      30.33460000      26.91010000
O       43.95430000      29.75550000      26.70000000
O       34.88330000      30.00220000      30.30280000
O       36.35170000      29.67650000      34.18350000
O       44.83240000      29.23860000      32.94300000
O       48.93690000      30.47530000      34.59000000
O       30.93670000      17.51410000      39.93150000
O       34.58250000      17.35790000      41.21770000
O       38.48740000      16.33820000      40.21280000
O       31.58520000      20.12500000      40.81460000
O       33.60820000      18.42370000      38.80810000
O       34.53770000      21.09600000      39.63190000
O       36.85620000      19.64720000      37.07380000
O       38.70040000      20.00550000      40.74270000
O       40.29750000      18.31040000      39.16490000
O       41.95500000      20.57690000      38.66600000
O       41.52160000      26.51730000      43.95590000
O       32.55270000      24.61330000      39.95170000
O       32.21220000      21.36200000      38.20730000
O       35.85290000      24.36780000      38.62030000
O       37.13360000      21.49390000      39.07420000
O       39.05830000      23.55120000      39.18970000
O       41.59560000      20.91460000      35.88350000
O       43.06850000      22.51280000      40.34520000
O       43.93480000      23.31420000      37.84300000
O       32.09560000      28.07700000      39.89490000
O       33.74320000      27.78620000      37.62080000
O       36.40640000      26.74340000      40.09590000
O       36.39560000      25.07980000      36.05150000
O       39.55850000      29.10220000      40.21360000
O       40.46910000      25.48480000      37.62150000
O       45.05040000      28.10680000      38.26010000
O       44.26510000      25.96250000      36.72750000
O       31.01020000      17.46540000      44.11100000
O       29.27720000      16.66470000      41.97210000
O       35.86460000      25.60370000      44.99800000
O       31.50990000      22.34650000      43.67230000
O       33.03560000      18.96390000      42.84130000
O       34.67310000      20.15840000      44.70200000
O       37.16190000      18.06750000      41.97780000
O       37.03740000      18.72520000      44.67760000
O       29.53290000      21.84050000      40.84450000
O       31.36930000      25.10120000      44.00130000
O       33.34880000      22.48160000      41.63800000
O       35.32920000      23.95560000      42.88900000
O       36.70860000      21.77160000      43.94640000
O       39.82590000      24.25310000      43.18060000
O       40.35010000      22.29500000      41.24640000
O       30.54940000      26.64030000      41.79900000
O       35.09080000      28.52850000      47.67680000
O       33.31260000      28.07900000      43.35860000
O       34.15340000      26.13530000      41.56070000
O       36.25150000      28.16220000      44.09850000
O       38.72310000      25.59530000      41.01680000
O       39.86360000      28.68780000      44.99620000
O       40.93580000      26.79890000      39.98630000
O       43.02860000      26.69300000      41.70100000
O       44.53040000      24.38080000      41.68010000
O       27.86440000      18.82410000      43.89160000
O       30.42410000      19.25280000      46.11130000
O       29.03210000      21.39800000      44.26300000
O       30.15110000      23.65270000      48.35440000
O       33.33100000      25.51260000      45.98680000
O       32.46820000      21.17940000      45.97210000
O       32.93220000      23.40320000      47.64810000
O       37.97570000      23.73200000      45.31990000
O       31.46090000      27.58300000      46.52690000
O       46.61450000      25.51090000      35.19310000
O       34.68760000      16.53550000      37.25420000
O       34.37380000      30.55330000      37.77860000
O       45.19430000      30.54760000      36.60200000
O       38.31330000      29.14430000      42.66830000
O       30.66890000      28.81320000      44.21310000
O       32.28980000      31.92610000      11.85030000
O       35.93310000      32.89370000      12.82540000
O       31.65210000      35.87140000      13.66290000
O       36.02640000      38.52850000      12.56180000
O       39.85620000      42.22570000      22.30830000
O       31.15990000      30.42160000      15.17450000
O       33.18430000      28.65810000      14.56760000
O       36.46860000      40.79870000      20.55110000
O       34.64620000      32.24940000      16.37370000
O       37.58830000      30.68470000      13.48890000
O       39.78780000      31.25390000      15.16380000
O       40.78480000      28.86060000      16.50340000
O       31.23990000      41.30530000      21.05270000
O       42.57180000      32.75520000      17.08010000
O       30.38140000      34.56950000      17.65740000
O       33.52080000      33.11740000      14.02500000
O       35.87580000      36.54850000      15.89800000
O       36.59100000      33.99520000      15.33860000
O       39.01340000      34.06460000      16.50290000
O       41.22240000      33.85360000      14.91530000
O       43.72260000      39.54130000      21.11190000
O       32.96070000      39.90740000      15.02230000
O       33.96070000      37.50560000      14.11730000
O       37.35900000      41.03660000      16.11450000
O       37.56780000      38.49770000      14.87980000
O       40.28610000      38.87240000      15.37950000
O       30.04900000      40.46410000      14.72390000
O       30.41070000      41.89370000      16.95030000
O       34.86060000      42.10730000      15.46060000
O       41.06360000      36.54530000      21.84480000
O       31.57080000      30.99740000      19.37190000
O       35.21190000      29.73070000      17.32720000
O       38.86520000      37.89780000      22.91530000
O       35.33030000      31.96570000      20.97270000
O       38.76330000      30.72810000      20.24100000
O       34.39540000      38.06920000      21.78220000
O       42.55000000      30.88340000      20.20730000
O       43.96510000      30.42800000      16.77670000
O       31.23830000      36.69400000      20.11740000
O       33.58050000      35.21150000      19.82520000
O       33.61220000      32.63440000      18.87070000
O       36.75360000      36.76420000      21.55230000
O       37.07620000      32.99870000      18.55950000
O       39.61970000      34.46220000      20.75250000
O       40.61420000      32.41270000      19.16040000
O       44.68110000      34.89800000      20.78680000
O       44.50240000      32.55170000      19.15050000
O       28.39720000      39.12840000      17.57450000
O       30.81520000      39.30860000      19.13400000
O       35.83440000      36.41340000      18.73100000
O       34.97790000      38.88480000      19.24890000
O       38.59800000      35.88370000      18.59850000
O       39.71550000      38.47450000      19.05500000
O       41.64790000      37.50080000      17.51540000
O       43.03470000      37.03360000      19.97580000
O       28.05460000      41.84620000      18.45150000
O       45.90220000      36.26350000      22.80720000
O       31.59200000      43.74530000      19.66350000
O       33.10090000      39.99940000      17.74660000
O       35.16100000      43.30020000      20.34330000
O       38.47190000      40.95470000      18.57110000
O       39.30230000      43.41080000      19.86670000
O       41.35160000      34.23810000      24.40670000
O       34.73560000      29.40630000      21.55940000
O       37.84390000      32.62060000      21.89370000
O       42.59690000      31.12560000      22.85990000
O       34.06920000      34.05660000      22.27990000
O       29.43720000      34.06930000      22.96520000
O       31.85500000      32.80950000      23.40450000
O       38.00730000      31.80590000      24.46260000
O       32.21460000      36.70740000      22.69750000
O       43.11550000      36.59320000      23.66610000
O       31.66980000      41.48070000      24.56010000
O       33.66600000      40.77950000      22.16070000
O       37.84560000      40.43310000      22.96000000
O       30.94860000      43.88050000      23.21730000
O       38.98520000      43.88900000      24.27010000
O       40.68760000      31.63560000      24.73380000
O       45.49800000      40.12030000      32.13400000
O       43.65760000      33.61400000      22.96910000
O       47.54680000      32.29490000      24.68010000
O       41.45010000      41.00780000      32.57590000
O       36.13310000      35.36450000      23.95340000
O       39.28280000      36.00290000      24.84850000
O       37.42400000      42.07350000      31.09860000
O       45.74630000      39.00140000      23.25850000
O       35.42820000      43.34940000      33.89220000
O       33.79300000      40.92110000      33.03650000
O       42.09110000      40.83080000      22.80290000
O       29.55150000      41.36790000      33.95750000
O       34.44830000      44.12260000      24.37380000
O       43.93560000      36.74940000      32.55090000
O       43.31530000      39.25860000      33.58950000
O       31.96660000      33.57370000      28.88270000
O       35.74360000      31.94930000      27.93350000
O       37.15320000      29.50020000      25.66380000
O       40.85610000      36.23380000      32.27100000
O       39.34350000      33.17170000      28.32480000
O       41.16090000      29.78820000      26.77530000
O       44.11720000      32.43950000      27.24500000
O       48.45450000      31.23860000      29.16220000
O       48.62350000      30.46350000      26.41590000
O       37.96440000      38.40090000      32.65590000
O       28.12900000      33.83790000      27.10570000
O       32.58450000      35.35070000      25.20820000
O       32.30520000      32.51500000      26.18760000
O       35.96280000      35.16670000      27.91390000
O       37.75230000      33.88640000      26.13450000
O       40.17030000      36.47150000      27.41200000
O       42.52800000      35.18980000      26.72380000
O       45.03060000      36.06770000      26.64710000
O       45.41310000      33.72770000      25.13260000
O       48.02800000      33.88780000      28.98940000
O       31.38140000      38.71540000      24.16510000
O       35.29390000      38.81190000      35.53800000
O       30.68920000      39.18010000      28.27880000
O       32.59950000      38.09560000      26.46280000
O       34.98900000      39.32970000      26.55760000
O       36.42720000      37.12640000      26.06810000
O       39.73750000      40.41070000      26.70540000
O       41.27290000      39.16720000      24.77790000
O       43.17030000      39.83640000      27.75460000
O       44.08560000      38.53960000      25.60350000
O       29.85230000      41.01460000      26.54920000
O       32.11920000      45.08770000      28.75920000
O       34.39960000      41.44440000      24.86740000
O       35.93960000      42.43360000      27.91900000
O       37.63690000      41.77870000      25.51170000
O       40.18250000      44.49610000      28.13420000
O       44.01080000      42.23470000      24.13050000
O       43.23830000      43.71020000      26.27050000
O       45.32030000      44.33310000      28.01230000
O       33.58450000      36.89730000      34.35950000
O       30.92850000      33.01840000      31.32590000
O       31.19700000      39.72100000      35.21150000
O       35.22220000      32.51670000      31.43290000
O       37.96320000      31.05940000      29.39910000
O       38.03960000      30.50210000      32.09830000
O       39.74460000      29.00520000      29.07030000
O       45.70700000      37.68970000      36.29870000
O       42.97060000      31.92570000      31.13870000
O       46.69010000      29.17400000      29.33180000
O       46.28920000      31.21470000      31.66140000
O       48.85720000      30.27190000      31.81550000
O       46.34450000      33.55900000      33.09940000
O       30.52620000      35.09180000      27.04890000
O       30.10380000      35.66960000      31.29060000
O       34.27300000      34.58250000      29.93160000
O       35.50180000      35.74160000      32.43730000
O       38.30470000      35.43290000      29.25070000
O       38.27040000      35.68290000      31.84230000
O       41.93610000      33.30720000      28.94660000
O       42.73210000      35.88900000      29.94330000
O       45.22530000      33.00710000      29.78820000
O       46.63920000      36.03390000      31.75460000
O       49.30350000      35.47770000      30.96110000
O       29.48980000      36.86980000      28.88340000
O       44.02760000      34.55500000      34.12210000
O       32.02550000      39.02790000      32.12480000
O       33.58290000      37.52290000      30.52810000
O       35.62380000      39.37160000      31.60490000
O       38.21670000      38.57910000      27.89550000
O       40.39000000      38.85570000      31.36670000
O       41.54840000      38.20420000      29.04840000
O       45.45840000      39.43040000      29.45800000
O       45.37610000      36.60020000      29.33390000
O       31.71370000      43.06630000      32.87230000
O       33.28610000      42.69440000      29.27950000
O       35.01240000      43.49760000      31.18640000
O       36.09080000      39.91960000      28.98200000
O       38.59590000      44.54750000      31.43920000
O       41.46540000      42.13260000      28.07630000
O       42.54930000      42.51910000      30.57650000
O       45.23180000      42.44810000      30.03670000
O       42.03400000      32.73210000      33.68500000
O       32.27380000      31.78670000      35.28100000
O       40.67110000      35.72670000      35.02880000
O       32.95840000      31.74640000      32.67400000
O       35.70090000      31.79860000      35.66240000
O       37.61250000      33.13810000      32.80190000
O       39.36570000      33.10670000      34.92920000
O       39.97400000      28.57610000      31.85830000
O       43.18440000      30.44420000      34.74770000
O       34.55160000      33.97990000      34.27030000
O       30.76450000      35.12380000      36.93960000
O       47.09870000      32.61510000      35.63700000
O       29.86560000      34.30220000      34.58410000
O       31.38040000      43.04220000      45.22800000
O       32.31950000      32.04800000      39.27230000
O       35.74100000      31.01520000      40.09670000
O       37.18110000      29.00160000      38.82170000
O       40.21440000      32.80200000      38.26660000
O       40.17480000      30.88640000      36.24580000
O       38.52450000      37.93880000      44.59480000
O       44.70290000      31.26090000      39.14920000
O       34.61030000      38.73870000      44.87050000
O       31.36140000      34.91780000      41.34840000
O       32.96470000      33.63020000      37.16850000
O       33.82150000      35.70370000      40.11210000
O       37.95420000      34.34100000      37.05540000
O       38.02380000      35.08300000      39.76680000
O       41.57490000      35.19030000      37.50500000
O       44.14960000      35.58620000      38.60700000
O       45.57740000      34.93240000      36.34280000
O       31.69320000      37.66900000      36.96080000
O       31.76600000      40.84640000      39.86490000
O       34.22540000      37.22990000      37.86100000
O       34.05510000      39.84650000      38.98830000
O       37.34450000      37.25630000      36.84220000
O       37.67390000      37.92780000      39.40090000
O       42.82710000      37.98290000      35.92610000
O       41.94930000      39.24840000      38.34960000
O       44.48900000      38.35050000      38.93060000
O       41.98540000      33.63540000      44.27770000
O       33.57180000      43.14630000      37.82460000
O       33.56410000      41.01640000      35.92810000
O       35.64570000      43.43950000      39.53040000
O       36.94810000      41.08660000      34.71700000
O       37.78150000      41.46320000      37.39950000
O       40.09670000      40.23440000      36.59290000
O       31.02180000      31.37190000      43.36790000
O       33.56750000      29.96170000      41.31170000
O       37.65580000      33.81760000      44.19530000
O       34.61410000      32.66200000      44.49760000
O       36.21710000      36.93600000      46.33630000
O       38.88160000      31.80180000      42.95500000
O       40.36590000      31.64650000      40.70580000
O       42.19860000      33.50250000      41.62920000
O       44.64090000      28.82410000      40.78460000
O       30.19510000      33.98040000      43.74830000
O       35.26040000      34.27080000      46.55180000
O       31.36450000      35.65860000      45.53460000
O       33.05560000      32.74880000      42.11530000
O       35.55050000      35.18610000      43.02690000
O       35.73740000      33.73380000      40.63840000
O       39.85710000      35.52420000      44.01880000
O       40.37020000      35.59370000      41.24410000
O       44.59470000      33.69390000      40.60380000
O       31.06090000      37.52750000      41.98770000
O       32.36620000      40.50700000      44.99160000
O       33.21580000      36.63910000      43.75590000
O       35.36030000      39.91880000      42.38570000
O       35.64710000      37.42950000      41.30270000
O       39.02440000      39.49980000      42.41220000
O       40.20600000      38.21220000      40.29110000
O       29.40140000      40.95420000      41.58930000
O       31.12570000      33.65470000      47.58710000
O       32.79190000      43.87390000      42.87430000
O       33.01820000      41.23170000      42.37310000
O       36.65820000      40.48380000      39.90820000
O       28.66530000      32.87880000      46.54630000
O       32.10630000      31.14750000      47.66890000
O       33.77610000      30.21790000      45.70640000
O       37.57630000      32.18100000      46.47200000
O       40.28620000      31.51820000      45.31190000
O       37.35840000      29.41420000      46.33210000
O       39.71090000      42.00660000      34.42880000
O       30.70490000      43.34010000      35.80480000
O       39.22380000      38.06680000      35.11840000
O       35.28720000      34.88520000      36.74430000
O       30.40660000      29.09040000      48.58550000
O       33.15560000      29.60470000      49.72420000
O       30.43370000      44.70100000      17.24590000
O       33.72950000      42.68670000      18.05380000
O       28.99230000      45.77500000      22.70980000
O       33.36100000      44.60680000      21.76850000
O       37.18060000      45.00670000      20.48460000
O       33.59610000      47.40880000      22.50130000
O       31.06680000      47.20370000      24.01310000
O       31.84330000      48.49730000      33.64370000
O       29.94730000      43.73810000      26.35670000
O       32.71060000      49.21690000      27.36040000
O       32.24710000      45.25850000      25.76700000
O       35.68040000      47.71200000      24.36190000
O       36.83320000      45.37420000      23.41280000
O       40.86130000      45.32250000      25.72050000
O       30.49710000      48.95200000      26.13260000
O       39.32140000      44.60690000      35.21010000
O       30.80120000      45.10270000      31.24010000
O       32.63640000      47.17450000      31.52570000
O       34.15530000      47.15760000      26.65080000
O       36.01940000      46.73040000      28.56720000
O       37.56970000      44.51500000      28.77960000
O       41.22980000      45.00460000      30.52880000
O       36.99450000      45.60350000      33.41290000
O       37.29620000      48.43540000      26.74070000
O       28.97090000      46.36770000      35.02080000
O       36.05330000      46.11990000      36.10480000
O       31.66270000      46.57440000      35.73950000
O       35.15550000      46.33310000      31.14610000
O       33.73780000      44.76200000      35.63340000
O       35.00880000      44.95260000      41.68270000
O       37.57420000      44.21300000      37.57210000
O       31.73800000      48.77740000      29.57480000
H       27.63580000      16.51340000      19.40650000
H       27.32360000      16.61070000      17.87120000
H       22.25930000      15.27580000      24.01420000
H       26.08350000      14.95190000      22.74890000
H       27.33240000      15.40110000      21.86070000
H       27.28160000      12.86520000      23.08620000
H       29.47170000      14.93870000      17.55770000
H       30.24310000      13.74800000      22.77090000
H       26.43750000      15.40040000      32.24770000
H       25.16690000      13.59590000      24.27380000
H       24.19480000      14.22780000      23.22420000
H       25.77620000      14.53200000      33.39170000
H       28.20000000      12.41710000      24.24300000
H       24.02980000      12.85250000      26.99840000
H       23.52550000      12.22390000      28.32270000
H       28.78600000      13.33430000      26.37000000
H       28.00870000      12.53590000      27.50010000
H       19.55990000      15.23280000      26.31420000
H       18.54660000      16.22060000      27.05840000
H       21.88450000      13.94760000      26.31550000
H       21.84850000      15.50890000      26.36640000
H       26.41800000      12.85340000      26.07510000
H       25.67130000      14.09900000      26.62200000
H       23.91090000      12.68870000      31.13420000
H       24.46540000      13.99500000      31.81650000
H       24.95930000      10.64810000      30.01360000
H       25.66890000      11.99740000      29.61280000
H       30.01640000      12.69890000      30.20540000
H       29.54780000      13.78240000      31.28550000
H       17.94300000      14.96180000      30.73880000
H       22.75020000      14.61950000      32.96220000
H       22.98830000      14.29200000      28.63580000
H       23.13790000      14.39370000      30.18970000
H       26.70480000      13.78220000      28.86460000
H       27.86590000      13.09750000      29.68770000
H       22.17800000      14.99960000      34.37660000
H       25.59460000      12.74350000      35.01120000
H       19.78530000      15.34670000      34.71470000
H       28.01290000      12.93540000      34.67410000
H       19.47480000      14.14920000      35.67200000
H       30.07410000      11.66050000      26.84230000
H       30.10200000      14.27740000      24.87870000
H       31.24170000      11.32320000      28.99670000
H       30.07820000      14.93820000      29.76940000
H       29.00420000      15.48460000      32.50860000
H       30.91320000      10.24500000      34.56080000
H       30.28880000      11.67390000      34.37880000
H       20.58740000      16.15660000      38.69910000
H       20.91220000      15.62570000      37.25690000
H       26.98540000      15.09760000      37.51190000
H       25.43550000      15.43910000      37.58370000
H       24.90870000      13.98540000      41.03220000
H       25.05930000      15.04500000      39.89930000
H       26.10960000      14.06640000      35.70570000
H       29.14440000      13.57550000      33.78350000
H       29.79240000      13.95540000      35.67730000
H       27.42600000      14.12800000      40.71540000
H       25.12910000      23.07740000      12.95290000
H       28.74270000      24.26280000      13.44440000
H       27.40150000      29.43160000      10.35450000
H       25.33810000      29.05720000      10.74650000
H       31.26060000      24.93450000      10.71500000
H       26.64390000      24.91090000      21.98860000
H       24.68510000      23.86300000      14.23010000
H       27.93800000      24.30640000      22.66520000
H       28.38470000      25.60170000      12.64640000
H       24.25720000      27.42310000      12.15150000
H       24.14600000      26.29840000      13.26630000
H       27.09060000      27.95780000      10.78260000
H       28.67470000      16.95830000      15.96310000
H       27.89220000      15.65120000      15.56210000
H       21.83020000      22.31140000      17.61660000
H       22.05770000      21.48960000      16.31300000
H       25.33810000      19.39020000      16.33420000
H       23.94640000      19.04320000      16.91690000
H       29.17760000      19.25490000      14.89140000
H       28.42960000      19.10740000      16.25750000
H       31.04980000      20.67140000      17.47520000
H       29.75830000      20.45650000      18.27260000
H       19.36700000      24.54960000      16.39450000
H       18.77420000      24.23210000      17.82730000
H       23.60730000      20.39580000      15.21420000
H       23.78650000      21.80330000      14.56500000
H       24.79030000      26.06950000      18.05410000
H       23.59830000      25.04170000      17.92520000
H       27.03820000      22.94260000      14.29660000
H       28.28120000      23.08690000      15.29760000
H       29.50260000      22.52180000      17.15990000
H       28.66540000      23.76020000      17.60700000
H       16.96650000      28.65520000      16.93740000
H       15.98960000      29.87390000      17.25930000
H       20.41570000      24.77100000      14.12520000
H       20.60320000      25.97960000      15.10770000
H       19.36140000      27.61310000      16.10760000
H       20.89280000      27.76380000      16.41780000
H       23.85230000      25.32750000      15.75120000
H       22.68560000      25.01970000      14.76810000
H       25.27000000      28.67150000      16.56380000
H       24.75430000      27.26500000      16.05340000
H       27.38050000      27.38610000      13.03160000
H       26.24850000      26.57330000      12.31510000
H       26.82130000      28.10930000      15.04470000
H       28.42690000      27.85860000      14.90380000
H       23.60590000      17.62600000      20.89220000
H       22.30700000      17.02810000      21.50030000
H       25.73430000      17.46080000      20.04920000
H       25.75750000      16.83410000      21.48820000
H       29.11490000      15.05040000      19.79580000
H       29.27630000      16.10870000      20.97210000
H       17.22580000      19.82500000      20.53220000
H       17.93520000      19.21350000      19.27050000
H       19.40260000      20.70440000      20.41420000
H       19.97790000      21.78860000      21.40250000
H       22.33930000      20.25100000      18.09040000
H       22.52360000      19.06920000      19.16370000
H       24.46080000      21.69680000      20.49980000
H       24.03770000      20.85140000      19.21850000
H       26.84080000      18.90730000      17.82750000
H       27.17500000      20.42090000      17.84110000
H       28.10930000      20.67800000      20.71040000
H       29.38890000      20.37860000      21.63820000
H       16.11680000      24.26080000      21.17370000
H       16.18630000      22.69920000      20.96960000
H       19.32020000      22.85910000      19.74420000
H       18.03760000      23.75130000      19.90670000
H       21.62090000      25.30790000      21.15080000
H       20.40930000      24.55870000      20.34670000
H       22.37590000      23.95030000      19.42890000
H       23.55700000      23.01930000      18.94730000
H       24.57230000      23.83090000      21.56350000
H       24.19240000      25.34380000      21.56750000
H       27.60830000      22.44630000      19.32910000
H       26.25370000      21.60750000      19.38290000
H       28.11070000      24.46430000      20.30070000
H       29.37570000      23.72850000      19.75410000
H       16.49110000      27.32500000      19.31030000
H       16.00840000      26.94320000      20.75460000
H       15.72550000      29.41690000      20.52800000
H       15.05600000      30.63290000      19.78470000
H       18.46400000      27.42070000      18.23620000
H       17.96460000      26.21900000      17.33490000
H       19.34980000      28.25000000      20.17150000
H       19.59180000      29.10050000      18.87860000
H       22.70530000      27.11160000      17.79240000
H       21.35720000      27.66890000      18.49810000
H       25.92940000      29.26070000      20.86240000
H       24.43040000      28.87920000      20.69360000
H       25.83130000      25.65480000      19.85490000
H       25.79170000      27.20770000      19.66920000
H       28.71040000      27.70770000      20.07430000
H       27.95950000      27.00920000      18.90690000
H       19.19940000      17.99220000      23.32960000
H       18.63280000      18.36510000      21.88250000
H       23.41110000      19.17660000      23.45870000
H       22.67100000      19.12010000      22.08990000
H       26.05180000      18.87230000      22.17430000
H       27.43660000      19.29670000      22.70430000
H       15.99620000      20.45450000      22.38030000
H       14.96190000      20.56080000      21.21330000
H       20.61460000      23.66780000      22.23190000
H       19.35510000      23.56290000      23.21250000
H       25.03090000      21.96810000      22.83920000
H       23.69340000      21.28720000      22.44470000
H       29.15690000      22.53710000      24.15550000
H       27.57800000      22.40490000      24.06240000
H       16.77280000      25.29850000      22.94290000
H       15.24230000      25.53590000      23.08130000
H       17.89830000      28.77400000      21.95970000
H       19.24660000      28.13790000      22.45960000
H       23.00750000      26.17210000      23.09880000
H       22.86100000      27.33180000      22.00950000
H       23.35410000      16.35110000      23.75800000
H       19.63670000      18.63560000      25.39440000
H       25.29400000      18.04150000      24.05780000
H       17.23360000      19.13320000      23.51230000
H       20.94770000      21.98730000      23.92760000
H       26.15570000      20.50450000      23.93170000
H       17.21510000      23.44810000      23.97650000
H       20.98080000      26.78540000      22.98880000
H       28.09580000      24.24840000      25.26580000
H       14.94420000      29.13650000      24.09640000
H       16.29270000      27.56850000      23.06110000
H       23.84600000      27.71470000      24.56210000
H       20.48400000      29.11070000      14.51320000
H       23.85930000      29.30730000      15.06020000
H       22.48310000      29.97140000      14.50830000
H       27.56630000      30.09110000      14.34250000
H       13.80570000      31.40450000      17.62430000
H       18.27660000      30.28520000      17.55440000
H       22.50830000      29.48950000      18.66610000
H       26.20380000      30.30030000      17.62430000
H       15.07710000      31.23680000      22.09530000
H       19.74450000      31.09150000      24.30180000
H       22.33750000      29.63430000      21.77690000
H       26.78430000      29.78320000      22.83400000
H       30.91430000      18.89250000      16.30860000
H       29.33150000      20.45750000      12.74810000
H       29.72390000      26.29780000      14.32610000
H       29.09280000      19.11100000      19.89660000
H       30.84350000      22.25260000      19.23490000
H       30.34240000      26.56970000      19.14110000
H       31.09250000      16.77400000      22.40560000
H       29.93360000      17.81570000      22.52240000
H       31.18030000      21.30620000      22.94250000
H       28.28470000      26.69110000      22.02870000
H       30.97490000      29.11240000      12.24670000
H       29.93030000      28.57830000      17.97160000
H       30.09060000      30.96870000      21.86240000
H       28.42610000      28.15250000      35.32310000
H       19.55890000      17.06380000      25.40120000
H       25.37570000      27.04390000      32.30920000
H       24.41140000      18.15030000      25.35480000
H       26.83700000      26.82080000      32.92370000
H       28.40840000      15.88430000      25.16270000
H       27.31400000      16.26570000      24.07980000
H       16.17790000      19.21730000      24.69300000
H       23.85060000      28.41420000      35.33520000
H       21.63730000      20.57950000      23.77840000
H       25.09640000      21.30010000      24.82500000
H       23.19290000      27.03100000      33.99400000
H       29.91060000      18.80630000      24.61410000
H       28.70580000      17.96150000      24.18480000
H       13.58480000      24.50300000      25.25720000
H       14.98030000      23.92570000      24.86650000
H       22.11020000      27.12570000      35.16270000
H       17.81860000      24.64160000      24.71480000
H       20.33030000      26.78080000      24.41080000
H       19.89130000      27.20720000      36.25430000
H       24.09380000      25.67170000      25.39310000
H       22.55770000      26.11580000      25.32150000
H       20.19430000      28.34950000      35.17140000
H       26.91180000      24.85850000      26.10540000
H       18.66660000      25.40260000      34.47340000
H       18.17070000      26.17260000      33.15280000
H       13.45210000      29.31400000      24.75230000
H       16.66570000      28.91420000      34.34270000
H       17.00340000      28.63090000      23.99880000
H       13.48150000      25.29880000      35.29600000
H       21.43010000      29.79270000      25.72660000
H       20.92670000      29.02530000      24.45010000
H       14.92790000      25.72940000      35.07460000
H       23.60100000      29.10440000      25.23530000
H       13.64860000      27.47700000      35.93440000
H       27.19660000      28.52620000      24.67290000
H       25.69780000      29.01630000      24.43960000
H       17.90050000      18.36590000      28.65470000
H       17.58970000      16.91310000      29.10590000
H       19.93660000      16.32150000      29.66440000
H       21.47310000      15.94640000      29.49490000
H       26.07190000      16.08090000      27.84580000
H       24.87510000      15.27740000      28.52480000
H       29.25770000      16.93910000      29.52360000
H       27.88940000      17.34280000      28.77860000
H       16.35400000      18.01870000      26.99290000
H       15.02950000      17.73390000      26.22420000
H       15.20290000      19.94580000      27.58920000
H       14.83300000      21.33610000      28.31610000
H       19.75450000      20.67130000      25.21990000
H       18.22620000      20.27440000      25.00390000
H       20.14790000      22.32550000      28.06400000
H       19.69780000      21.01010000      28.76450000
H       21.42330000      17.24650000      27.80400000
H       21.36000000      17.62950000      26.27540000
H       23.36620000      18.25870000      27.28400000
H       24.37850000      19.15110000      28.15700000
H       27.05170000      17.28890000      26.33570000
H       25.88260000      18.05300000      27.14650000
H       27.88300000      19.25030000      27.82500000
H       27.81490000      20.81230000      27.63050000
H       11.45230000      23.80170000      26.63530000
H       12.16880000      25.14080000      27.04290000
H       16.56450000      22.43770000      25.79430000
H       16.06340000      21.54380000      24.59760000
H       15.33200000      24.12690000      28.73530000
H       16.81190000      24.34300000      29.22750000
H       18.30870000      21.57830000      26.79100000
H       17.80170000      22.45510000      27.98430000
H       19.24230000      23.99430000      26.97000000
H       19.74620000      24.85660000      28.13170000
H       23.63610000      20.30190000      26.26640000
H       22.70060000      21.23890000      25.35370000
H       23.69690000      22.90320000      28.43730000
H       23.92210000      22.26740000      27.00540000
H       26.01810000      22.24520000      27.49820000
H       26.66200000      21.82550000      26.12350000
H       28.60000000      24.22310000      27.47960000
H       28.65200000      23.17680000      28.67290000
H       13.24940000      26.92250000      27.23830000
H       11.89410000      27.61560000      27.00680000
H       14.81320000      26.21890000      25.79360000
H       14.68260000      27.80590000      25.80360000
H       17.44580000      28.31080000      26.93460000
H       16.20470000      27.43390000      27.30650000
H       17.71770000      26.14370000      26.43400000
H       16.90110000      24.98920000      27.04540000
H       20.13160000      27.65400000      28.49610000
H       20.02530000      28.95680000      27.64400000
H       20.89530000      27.07270000      26.62410000
H       20.68060000      25.49720000      26.46160000
H       24.25860000      27.47660000      28.95390000
H       23.70580000      28.89350000      29.42330000
H       24.81370000      24.22850000      26.85620000
H       25.28490000      25.62650000      27.28300000
H       27.45220000      28.48650000      28.63540000
H       26.56890000      29.39180000      27.64600000
H       16.94880000      17.28570000      31.62290000
H       15.91900000      18.48850000      31.57890000
H       20.74780000      15.97440000      32.94040000
H       19.58170000      16.99060000      33.27400000
H       24.58170000      16.61710000      31.65330000
H       23.78450000      16.45970000      30.31600000
H       27.54440000      17.26030000      32.47070000
H       27.92520000      16.78850000      31.01630000
H       14.78470000      19.66880000      29.82510000
H       13.77800000      18.71330000      30.57290000
H       13.61770000      21.08240000      31.10180000
H       13.51370000      22.26420000      32.09510000
H       17.88530000      20.27460000      30.21280000
H       17.09660000      20.35120000      28.88630000
H       20.84170000      20.13490000      31.74240000
H       20.89100000      21.64880000      32.25530000
H       21.14980000      17.94830000      30.78770000
H       22.41700000      18.21660000      31.61710000
H       24.24460000      20.88440000      30.97620000
H       23.54230000      21.23740000      32.35040000
H       25.80650000      19.61890000      30.08700000
H       24.58450000      18.66620000      30.28220000
H       27.96400000      19.09130000      30.39630000
H       27.34010000      19.43530000      31.80750000
H       13.38320000      24.95990000      31.84450000
H       13.66000000      25.82350000      33.12280000
H       13.71440000      22.70110000      29.60350000
H       13.35840000      23.27650000      28.13740000
H       16.84310000      23.37210000      32.50810000
H       16.76870000      24.67180000      33.38250000
H       18.94920000      23.74140000      30.10730000
H       17.89640000      22.67870000      30.57500000
H       21.30680000      23.96330000      30.13740000
H       20.86440000      24.17480000      31.59980000
H       22.81990000      22.29840000      30.36140000
H       21.75150000      22.09060000      29.19660000
H       24.77110000      23.36160000      31.23080000
H       25.63690000      24.64620000      31.55900000
H       27.53650000      21.46010000      30.41000000
H       26.74050000      22.83760000      30.29700000
H       27.73290000      23.91410000      32.88840000
H       28.28090000      23.14290000      31.63470000
H       11.84250000      26.78630000      30.74930000
H       11.74030000      27.05910000      29.20720000
H       13.04930000      29.26260000      31.68350000
H       13.36440000      27.85920000      32.33760000
H       14.88650000      26.46180000      31.15150000
H       15.67880000      26.12670000      29.82990000
H       18.55620000      27.58120000      31.50490000
H       17.16010000      26.81730000      31.25970000
H       18.84640000      26.22360000      29.94670000
H       18.18910000      26.75970000      28.63350000
H       19.91810000      29.21340000      32.25660000
H       20.56070000      28.22980000      31.15280000
H       21.36710000      26.12990000      30.65100000
H       22.22250000      27.28290000      29.90410000
H       23.57820000      28.61340000      32.53260000
H       22.99350000      27.34770000      31.79140000
H       26.31870000      26.51590000      29.19110000
H       25.27110000      25.40750000      29.54550000
H       27.20230000      27.30190000      30.87430000
H       28.45420000      26.73680000      30.11980000
H       18.35760000      16.49480000      36.20070000
H       18.26590000      17.79070000      35.34390000
H       27.04050000      24.63830000      35.38120000
H       23.60600000      17.00630000      33.64340000
H       28.08670000      17.51950000      36.29140000
H       26.89920000      16.60680000      35.91100000
H       16.07160000      17.86760000      35.41900000
H       15.74300000      18.03730000      33.91410000
H       25.49110000      23.71840000      34.10740000
H       16.06210000      19.99750000      34.51840000
H       18.14100000      18.68590000      33.21030000
H       19.40300000      19.24240000      34.05670000
H       20.46490000      21.02360000      35.51530000
H       20.93420000      19.56610000      35.71940000
H       23.33770000      19.45590000      33.78770000
H       22.06430000      20.34790000      34.02920000
H       26.66680000      22.66550000      34.38890000
H       23.32880000      21.30750000      35.33620000
H       27.15760000      18.17780000      34.26840000
H       25.84760000      18.43270000      33.44120000
H       23.51690000      24.95890000      34.63240000
H       27.16730000      20.33380000      34.27770000
H       13.52820000      23.08590000      35.26520000
H       23.58830000      23.44250000      35.11650000
H       14.89920000      23.29290000      33.49040000
H       14.79290000      21.84310000      33.96280000
H       16.96530000      25.52830000      36.41590000
H       20.75850000      23.50590000      33.83200000
H       18.70310000      21.25900000      32.02750000
H       17.21990000      21.16620000      32.65240000
H       22.25610000      23.52100000      33.36670000
H       19.12580000      23.41640000      35.60270000
H       18.84590000      15.90330000      31.60860000
H       10.79470000      29.47850000      25.87960000
H       14.76000000      30.98820000      25.97940000
H       19.00060000      29.09760000      25.36050000
H       22.91480000      29.08610000      27.38620000
H       11.65710000      29.07840000      30.26050000
H       15.24080000      28.56280000      29.88720000
H       19.27740000      29.79760000      30.01340000
H       23.60610000      30.57740000      31.15320000
H       25.28050000      31.43830000      30.06970000
H       12.46740000      29.45120000      33.99800000
H       12.19870000      29.38040000      35.53020000
H       14.89020000      29.47670000      33.02490000
H       18.78180000      29.36190000      34.18080000
H       23.79570000      30.18270000      33.91480000
H       27.09120000      29.98870000      35.69560000
H       25.52580000      30.16030000      35.58480000
H       29.65770000      19.67360000      26.83950000
H       30.58030000      20.89770000      25.25850000
H       28.09940000      27.98170000      26.46300000
H       31.97050000      18.99080000      31.37180000
H       28.34690000      26.37140000      34.51820000
H       29.72210000      20.77150000      29.27740000
H       29.50350000      24.90760000      29.59940000
H       30.10850000      19.30110000      35.01880000
H       29.99670000      30.25520000      25.09980000
H       18.49450000      15.97850000      40.25510000
H       18.48970000      17.32050000      39.43810000
H       24.21840000      16.96660000      39.43610000
H       23.19080000      16.08860000      38.57280000
H       28.71180000      14.87070000      39.11170000
H       28.77800000      16.20010000      38.23000000
H       15.61210000      21.44640000      38.45310000
H       16.73220000      20.29170000      38.45140000
H       17.81100000      18.25700000      37.63760000
H       18.56180000      19.23220000      38.64660000
H       19.54970000      20.99680000      39.70310000
H       20.40460000      19.70120000      39.86590000
H       22.64500000      18.58730000      36.76850000
H       21.39750000      17.85820000      37.32350000
H       24.68220000      19.99020000      40.68470000
H       23.97120000      21.06120000      41.60460000
H       24.46720000      17.47110000      37.29350000
H       24.90450000      18.91250000      36.76390000
H       27.27620000      19.86720000      40.14690000
H       27.73940000      20.54180000      38.80630000
H       13.23330000      21.72910000      38.72430000
H       13.73170000      22.78040000      37.68980000
H       15.48590000      24.34510000      40.78790000
H       14.25790000      23.61500000      40.16090000
H       17.29090000      22.11080000      36.92980000
H       16.89080000      23.39600000      36.12380000
H       20.36870000      24.22930000      39.24720000
H       19.06730000      23.38220000      39.12930000
H       20.61310000      22.67600000      37.67930000
H       20.79460000      21.14100000      37.88500000
H       24.45290000      24.09870000      39.27060000
H       23.06170000      24.67610000      39.78850000
H       25.85770000      20.44900000      37.95170000
H       24.81330000      21.11060000      36.88320000
H       29.59230000      23.51750000      40.70330000
H       29.33730000      24.56040000      39.53160000
H       15.45240000      26.46520000      38.75390000
H       14.31750000      25.47200000      39.06960000
H       16.88210000      27.73440000      39.75270000
H       17.31860000      26.26090000      40.13680000
H       19.02370000      25.40530000      37.60490000
H       18.15020000      26.64100000      37.94710000
H       21.81070000      27.75160000      39.19210000
H       21.26040000      26.58350000      38.26230000
H       22.52410000      24.80500000      37.71030000
H       22.39290000      25.58950000      36.37520000
H       23.75740000      28.52440000      39.53330000
H       22.75420000      29.48230000      40.34470000
H       24.53400000      26.33080000      39.36870000
H       25.32460000      27.15260000      40.47350000
H       27.52730000      28.05990000      41.42410000
H       28.20980000      28.39410000      40.07670000
H       27.43610000      16.91040000      42.12380000
H       26.24660000      15.95120000      41.69670000
H       19.85920000      20.09560000      42.19430000
H       19.15380000      21.46110000      41.85350000
H       21.27390000      18.27930000      41.87660000
H       20.02300000      17.79090000      41.01320000
H       23.50130000      18.04280000      43.48050000
H       22.84350000      19.35670000      42.91910000
H       25.35890000      17.79060000      41.06020000
H       23.86550000      18.14650000      41.33540000
H       27.51140000      19.75670000      42.57550000
H       26.44400000      20.70680000      41.84220000
H       17.72070000      23.10920000      40.86060000
H       17.43630000      21.94300000      39.80430000
H       20.05140000      24.07370000      43.46440000
H       19.88580000      25.63120000      43.39360000
H       21.68710000      21.27410000      42.53240000
H       22.78510000      21.60580000      43.61420000
H       26.27590000      23.16300000      44.56960000
H       26.63670000      24.21050000      43.41830000
H       26.43920000      22.74840000      39.10190000
H       25.39790000      22.17800000      40.15570000
H       27.90580000      24.59980000      41.41060000
H       26.50130000      23.99040000      41.09560000
H       14.16710000      26.12380000      41.73730000
H       13.43070000      26.93980000      42.84090000
H       17.37110000      27.76440000      42.65880000
H       16.01850000      27.11920000      43.16960000
H       18.50660000      24.86010000      41.82170000
H       17.18710000      25.54010000      42.16940000
H       22.40290000      27.94350000      43.77290000
H       20.82700000      27.94730000      43.98750000
H       21.01210000      24.83420000      41.42120000
H       21.27660000      25.80280000      40.19590000
H       23.99790000      26.54310000      44.46990000
H       24.51690000      28.05750000      44.54290000
H       26.34480000      26.13760000      42.04670000
H       25.36050000      27.19310000      42.75900000
H       27.45650000      27.58580000      43.55470000
H       27.81030000      27.25740000      45.03140000
H       25.59800000      17.19730000      43.59840000
H       25.04350000      16.89050000      45.03350000
H       20.98500000      22.69060000      44.90190000
H       19.86780000      22.06130000      44.01910000
H       27.75330000      27.25360000      47.80350000
H       23.23170000      23.39730000      45.33770000
H       26.24360000      21.40460000      45.91000000
H       24.85520000      21.64430000      45.22100000
H       27.72450000      23.20740000      46.80960000
H       19.18200000      26.26670000      45.53030000
H       18.31480000      26.93000000      44.39230000
H       24.16460000      25.23950000      46.13720000
H       24.79020000      24.64240000      44.82320000
H       27.03990000      25.25290000      45.52550000
H       25.76170000      25.98890000      47.32600000
H       28.37760000      25.63620000      46.26190000
H       29.10780000      28.69520000      36.72770000
H       23.30230000      29.68310000      36.05600000
H       17.48090000      27.55660000      34.69540000
H       13.64650000      27.33610000      37.45980000
H       24.21390000      17.78560000      34.86110000
H       26.81310000      25.89280000      36.32220000
H       16.72630000      21.41920000      34.90890000
H       22.59290000      21.89830000      36.61160000
H       26.85300000      20.90740000      35.69690000
H       12.16000000      23.30240000      36.00100000
H       15.56380000      25.22660000      37.06590000
H       20.40580000      24.27890000      35.91800000
H       14.51620000      30.65310000      38.27700000
H       19.74800000      28.34070000      39.15790000
H       21.42810000      29.08010000      36.85150000
H       26.31690000      27.96890000      38.75870000
H       14.83260000      28.68600000      41.16420000
H       18.50500000      29.08000000      40.96750000
H       21.89140000      29.71660000      42.45340000
H       26.48830000      30.16590000      39.22900000
H       25.64630000      30.58530000      40.47790000
H       20.01040000      29.94200000      46.19570000
H       19.10290000      28.76790000      45.76390000
H       21.94340000      29.50930000      45.25200000
H       26.56990000      29.06780000      44.76600000
H       28.24360000      18.54100000      38.50230000
H       28.64770000      24.87320000      37.13210000
H       29.27100000      15.69000000      41.88760000
H       28.75900000      21.38650000      41.27140000
H       29.82210000      27.30410000      41.73520000
H       28.39540000      19.47450000      44.40160000
H       28.76760000      21.78470000      45.13580000
H       30.51190000      26.22740000      46.48820000
H       28.73030000      30.01980000      41.43670000
H       29.71540000      28.57060000      44.15000000
H       22.74970000      22.23640000      46.30520000
H       28.90520000      22.46910000      47.44450000
H       28.23360000      26.86520000      49.23680000
H       24.46190000      26.81010000      47.68640000
H       26.70690000      28.81420000      49.01620000
H       28.56620000      25.10930000      50.78750000
H       30.92780000      28.93150000      49.39550000
H       23.81530000      29.44470000      10.52340000
H       27.94950000      33.99140000      13.93620000
H       29.86290000      33.78850000      12.38030000
H       29.11420000      30.49240000      11.53510000
H       24.86640000      30.85580000      12.24460000
H       24.33840000      30.96660000      13.69160000
H       24.31330000      40.69070000      21.32660000
H       28.32050000      32.46620000      13.86040000
H       23.47180000      36.11250000      12.82230000
H       22.23910000      36.92000000      13.33150000
H       28.04460000      37.71900000      13.59270000
H       26.97510000      36.60690000      13.45500000
H       16.79840000      31.14860000      15.55940000
H       16.79260000      32.62240000      16.05800000
H       20.33710000      30.61740000      14.02800000
H       25.45550000      39.60070000      21.62440000
H       20.07520000      31.77180000      17.26770000
H       21.46420000      32.41810000      16.82600000
H       22.57350000      41.70450000      23.14310000
H       23.92140000      32.46100000      17.09720000
H       23.35180000      31.30120000      16.14140000
H       21.80650000      42.77680000      24.01780000
H       26.52000000      31.17770000      13.86790000
H       28.14740000      31.77530000      17.60290000
H       27.44490000      31.46350000      16.15750000
H       19.89200000      32.46800000      15.16890000
H       18.49340000      32.14100000      14.59550000
H       18.14620000      34.84550000      13.17030000
H       19.26090000      33.78610000      13.43520000
H       23.59300000      34.10100000      14.19240000
H       24.30720000      33.15770000      13.13050000
H       23.46580000      35.81890000      15.76890000
H       22.80830000      34.79290000      16.72070000
H       25.72090000      34.63570000      13.83010000
H       26.37860000      35.21930000      15.13080000
H       29.27080000      35.83730000      17.18170000
H       27.73860000      36.14170000      16.87520000
H       19.75480000      37.38140000      15.78980000
H       20.27000000      37.67990000      17.20700000
H       21.29190000      35.88220000      14.99180000
H       20.09520000      35.84520000      13.96760000
H       23.53160000      37.99300000      17.43600000
H       24.53470000      38.23380000      16.19730000
H       25.78500000      38.23210000      14.10770000
H       24.24410000      38.17480000      13.95410000
H       26.36450000      40.19650000      15.12640000
H       27.52860000      40.09590000      16.16340000
H       26.04460000      42.65600000      15.95100000
H       24.95960000      43.32530000      16.85230000
H       27.77110000      43.54120000      18.06030000
H       26.88850000      44.47260000      17.23470000
H       15.12370000      32.20540000      17.89110000
H       17.76910000      42.71580000      22.50390000
H       18.16440000      32.52190000      20.53470000
H       16.90770000      31.51530000      20.29040000
H       19.08390000      42.06980000      22.99970000
H       18.56770000      31.15630000      18.81400000
H       21.17960000      30.51910000      20.35100000
H       20.13070000      30.09910000      21.47430000
H       22.68180000      30.95450000      18.21610000
H       23.58540000      33.06730000      21.07080000
H       23.35470000      31.85220000      20.07130000
H       25.42740000      37.44330000      21.26800000
H       25.38350000      29.41370000      18.66570000
H       27.98010000      31.19470000      21.60180000
H       28.80610000      32.08080000      20.52320000
H       16.93330000      33.12890000      18.51730000
H       16.75170000      34.45420000      17.70430000
H       17.25090000      36.82810000      19.58340000
H       17.19110000      36.47100000      21.13620000
H       20.12470000      33.82050000      18.01320000
H       19.92500000      34.01410000      19.57670000
H       22.69750000      36.30550000      20.92020000
H       21.22380000      36.06860000      21.51310000
H       23.00410000      34.01420000      19.02230000
H       21.84070000      34.97950000      18.70840000
H       25.09710000      35.44990000      20.63060000
H       24.07080000      35.86180000      19.49740000
H       26.10480000      32.67540000      17.61980000
H       25.08720000      33.06960000      18.78620000
H       29.39970000      34.72110000      21.27210000
H       28.16550000      34.95370000      20.39570000
H       15.90340000      40.08270000      22.49150000
H       17.42220000      40.28460000      22.38040000
H       18.23460000      36.63860000      17.48500000
H       18.60980000      35.43940000      18.38110000
H       19.32560000      39.90200000      19.54060000
H       19.43680000      39.75320000      17.97370000
H       21.38620000      38.78150000      18.60880000
H       21.77440000      37.34980000      19.09170000
H       22.10590000      40.31570000      21.53790000
H       22.32360000      41.64250000      20.72300000
H       25.71150000      34.87630000      17.32380000
H       25.45800000      36.44670000      17.08380000
H       25.09630000      39.60330000      17.96570000
H       25.36460000      40.23900000      19.38920000
H       20.66630000      44.97010000      20.86930000
H       19.52430000      43.92080000      21.12780000
H       20.91500000      43.08950000      19.69380000
H       20.86630000      41.61660000      19.05730000
H       24.24520000      43.79260000      20.18720000
H       23.56900000      44.75790000      21.27000000
H       23.08030000      42.70500000      18.63350000
H       24.45130000      41.94870000      18.50440000
H       26.44980000      41.67740000      21.12610000
H       27.14650000      43.15380000      20.99960000
H       26.64490000      37.58790000      22.26530000
H       14.53910000      31.21820000      23.55840000
H       21.44380000      38.85410000      22.80930000
H       18.63360000      32.21170000      23.95820000
H       23.42230000      29.09300000      22.84140000
H       21.40170000      38.13980000      21.42890000
H       26.13130000      31.05690000      22.19200000
H       17.31160000      34.56050000      22.76980000
H       16.75440000      35.95110000      23.15450000
H       20.14520000      32.44780000      21.44430000
H       19.80780000      33.94750000      21.80300000
H       23.67290000      34.67290000      22.97280000
H       22.69870000      33.54530000      23.45330000
H       26.35260000      33.79200000      21.69610000
H       26.77500000      35.23850000      22.05850000
H       15.67160000      38.00100000      21.17910000
H       14.18220000      38.50280000      21.26800000
H       18.05590000      38.62880000      20.88320000
H       19.35910000      39.26470000      21.54560000
H       14.89470000      34.83070000      25.04380000
H       16.29340000      32.56290000      23.47340000
H       27.98660000      31.67380000      25.13690000
H       15.09470000      37.34930000      23.35320000
H       17.96990000      36.55540000      25.65280000
H       28.35140000      35.46360000      23.39090000
H       16.45550000      40.57730000      24.61970000
H       20.65510000      40.94960000      23.96460000
H       25.42270000      38.90340000      25.04860000
H       28.74440000      39.99240000      23.78330000
H       19.87780000      43.92980000      23.57820000
H       23.98860000      43.50140000      26.32780000
H       27.13000000      43.33190000      24.22700000
H       28.77460000      41.97140000      23.50910000
H       30.11210000      33.40130000      14.82500000
H       29.86630000      38.62670000      14.69680000
H       29.10090000      40.62320000      14.53360000
H       30.97100000      29.72160000      18.29620000
H       30.38290000      36.17830000      20.07370000
H       28.49460000      38.16140000      17.38420000
H       27.38420000      41.19530000      18.15560000
H       27.90300000      41.89720000      19.43530000
H       29.01370000      33.24370000      22.61770000
H       15.23350000      34.85150000      26.55820000
H       27.03700000      43.26000000      35.44790000
H       16.70070000      33.50550000      24.65790000
H       23.65160000      41.92680000      34.95100000
H       25.13520000      41.42320000      34.82130000
H       21.57570000      33.52250000      25.50490000
H       20.71550000      32.90440000      24.30470000
H       26.31670000      32.50280000      23.73590000
H       24.91830000      32.93310000      23.02850000
H       27.37740000      32.95250000      25.74860000
H       22.13530000      43.26430000      36.59000000
H       15.78650000      37.29130000      24.76510000
H       21.57320000      42.72310000      34.37120000
H       18.70110000      35.15960000      25.84990000
H       21.09050000      42.10920000      32.99200000
H       20.65420000      34.91560000      23.57490000
H       19.33650000      35.62760000      23.07720000
H       18.68320000      43.46120000      37.55620000
H       24.78730000      36.81490000      23.23100000
H       24.43470000      36.15510000      24.63960000
H       27.38500000      36.44570000      24.21440000
H       16.35740000      39.60290000      25.87730000
H       16.37880000      41.89300000      34.28430000
H       17.95640000      41.86990000      34.19020000
H       19.42240000      41.02950000      24.89310000
H       14.06150000      41.09010000      34.57150000
H       23.93920000      39.36270000      24.70730000
H       14.94890000      40.19930000      33.62770000
H       29.00560000      40.03650000      25.32340000
H       27.19630000      41.08780000      36.20580000
H       20.51700000      44.57290000      24.88020000
H       25.86690000      38.66810000      33.80690000
H       25.04300000      44.70990000      26.39230000
H       27.09670000      38.15340000      34.72720000
H       27.36420000      42.37680000      25.44220000
H       25.21690000      39.03220000      36.08790000
H       11.95440000      30.04490000      26.77470000
H       13.46720000      31.39070000      27.63480000
H       12.16380000      32.05690000      28.22160000
H       14.90670000      32.55040000      26.27570000
H       17.96180000      30.91880000      27.91160000
H       16.65350000      31.40410000      27.11260000
H       21.57650000      39.66040000      33.63400000
H       17.84070000      29.99720000      25.86670000
H       22.71810000      40.00160000      34.64620000
H       21.34480000      32.58230000      30.10600000
H       20.47650000      31.47560000      29.39390000
H       20.31510000      40.69340000      34.96940000
H       23.78000000      30.26930000      26.81220000
H       24.92100000      33.81400000      28.50480000
H       23.72690000      33.34880000      27.56180000
H       25.31630000      31.73730000      27.37340000
H       25.96200000      31.01070000      26.17900000
H       27.55570000      31.55870000      29.19980000
H       28.17200000      30.76820000      27.99770000
H       12.73440000      36.81870000      29.50600000
H       12.24890000      35.51590000      28.78990000
H       15.48570000      35.86040000      28.67920000
H       14.17130000      36.27750000      27.96360000
H       15.58120000      34.81030000      30.77090000
H       16.65280000      36.00860000      30.64810000
H       19.10950000      34.03710000      27.74990000
H       18.39480000      32.95680000      26.84170000
H       20.37540000      34.62930000      29.72000000
H       18.97630000      34.10420000      30.06070000
H       21.88520000      34.41060000      27.56580000
H       21.63440000      32.88870000      27.92350000
H       22.26290000      36.96740000      28.45790000
H       23.24870000      36.22780000      27.41260000
H       24.75530000      34.87650000      26.65880000
H       25.52660000      36.19200000      26.77250000
H       27.36240000      35.23360000      27.69000000
H       26.39920000      35.70500000      28.81310000
H       17.52760000      38.16900000      27.06960000
H       16.16670000      37.31600000      27.07770000
H       19.72770000      38.45590000      27.01850000
H       19.08410000      39.81540000      27.47240000
H       20.01600000      36.88610000      25.63660000
H       21.29710000      36.99010000      26.59780000
H       21.78800000      39.53300000      29.43670000
H       20.59120000      38.64230000      28.94420000
H       22.91180000      37.65680000      23.96420000
H       21.76130000      38.19720000      24.87820000
H       23.06670000      39.04290000      27.84430000
H       24.23550000      39.40850000      26.85070000
H       26.99980000      37.86220000      26.41380000
H       27.59930000      38.38740000      25.07670000
H       28.35630000      39.54110000      28.14550000
H       27.10530000      39.21140000      29.00680000
H       15.74310000      41.64570000      26.87810000
H       14.71010000      42.50270000      27.69420000
H       18.42080000      44.01920000      28.96620000
H       17.26630000      43.44690000      28.06240000
H       18.77230000      42.22470000      27.11240000
H       17.88500000      41.19550000      26.30890000
H       21.97170000      42.85450000      27.68510000
H       20.77550000      43.80020000      27.97730000
H       23.30360000      41.12390000      27.09800000
H       22.83420000      41.78930000      25.71040000
H       24.54460000      43.21990000      29.22290000
H       25.22330000      42.16100000      28.24930000
H       26.71670000      40.82840000      27.13010000
H       25.62680000      41.07300000      26.04320000
H       29.12870000      44.61490000      27.53030000
H       28.29550000      44.41390000      28.85550000
H       18.75320000      39.21520000      35.04650000
H       12.42760000      30.25820000      29.53280000
H       12.01250000      31.52830000      31.24930000
H       11.73830000      32.56260000      32.40550000
H       18.76680000      37.85730000      35.88450000
H       16.02910000      29.14220000      28.71820000
H       16.04040000      30.51600000      30.38290000
H       16.34590000      30.69830000      31.92630000
H       18.14840000      30.83040000      30.05510000
H       22.52100000      33.52170000      34.08030000
H       21.38210000      32.48280000      34.43520000
H       15.58440000      39.83230000      36.16120000
H       15.66460000      37.17740000      33.83600000
H       22.88690000      31.01060000      29.81600000
H       26.41420000      31.21620000      33.97740000
H       25.27060000      31.35440000      32.95560000
H       26.30750000      31.68520000      31.22900000
H       17.17750000      37.65240000      34.07150000
H       28.07200000      31.17820000      32.42370000
H       29.36120000      30.50320000      31.78680000
H       11.72410000      33.40010000      30.00460000
H       10.62820000      33.83150000      28.97730000
H       13.97380000      35.91460000      34.50370000
H       13.56790000      36.81930000      33.27400000
H       15.39330000      32.53710000      31.35110000
H       13.96570000      33.14500000      31.60290000
H       16.92580000      35.50560000      33.29400000
H       16.12440000      34.18940000      33.03240000
H       17.98510000      33.83020000      32.07780000
H       17.71570000      32.55610000      31.21190000
H       20.52540000      35.27870000      32.16280000
H       19.90140000      35.82440000      33.50740000
H       22.38750000      34.33430000      31.38160000
H       21.50600000      33.33650000      32.18380000
H       23.73630000      35.20200000      32.80600000
H       23.37420000      36.22160000      31.66850000
H       24.92220000      34.82470000      30.76600000
H       25.89080000      33.61710000      30.28250000
H       28.33770000      35.94480000      31.55160000
H       26.86930000      35.64590000      31.05540000
H       13.88750000      38.10540000      31.41300000
H       14.33690000      36.69740000      30.95870000
H       15.54340000      39.95940000      31.40060000
H       15.83930000      38.71970000      32.35100000
H       18.83150000      36.56980000      31.53270000
H       18.71520000      36.27260000      30.02420000
H       20.02350000      40.24520000      31.79590000
H       21.48830000      40.71320000      31.44760000
H       21.63200000      37.27450000      32.25560000
H       21.99510000      38.00370000      30.91280000
H       23.83830000      38.72080000      32.27730000
H       24.43630000      40.03250000      32.92540000
H       27.20110000      37.99180000      31.15290000
H       26.12710000      39.11160000      31.30080000
H       28.16930000      40.26580000      31.19280000
H       28.96950000      41.13590000      32.25250000
H       16.06240000      41.24080000      29.33110000
H       16.44000000      41.94850000      30.68510000
H       16.82210000      43.07780000      32.41210000
H       17.29270000      43.98620000      31.22250000
H       18.52270000      38.69780000      30.77500000
H       17.92380000      40.15060000      30.60710000
H       20.48530000      44.39390000      33.15010000
H       19.28590000      45.21910000      33.73400000
H       21.88690000      41.89480000      29.52130000
H       23.31610000      41.29240000      29.70970000
H       22.93310000      43.74250000      32.69140000
H       23.48650000      44.53410000      31.42040000
H       27.99210000      42.43630000      30.45910000
H       26.65550000      42.87350000      29.73590000
H       27.73560000      44.60580000      31.00020000
H       27.31120000      45.42810000      32.26260000
H       28.47950000      36.34480000      35.30380000
H       13.42240000      31.20970000      34.94750000
H       27.12060000      34.87440000      33.00140000
H       26.82560000      33.34490000      33.35300000
H       15.28880000      30.64460000      33.98410000
H       16.46650000      29.80810000      37.49190000
H       19.86220000      30.47320000      34.44760000
H       24.10640000      37.69820000      37.66240000
H       20.84030000      31.14720000      36.31490000
H       22.85020000      35.71850000      34.83960000
H       23.03130000      31.39630000      33.27820000
H       24.18320000      34.84040000      35.01500000
H       26.22630000      34.45640000      35.19750000
H       21.91110000      37.81860000      35.31140000
H       18.78360000      35.25930000      35.52800000
H       26.99170000      31.95380000      36.82790000
H       20.24460000      35.87520000      35.60110000
H       16.88720000      35.38150000      37.21590000
H       13.96830000      35.06740000      37.12140000
H       15.50250000      34.49610000      35.62430000
H       14.37480000      33.44200000      35.30710000
H       19.23960000      45.12720000      31.47340000
H       28.67590000      41.40930000      34.42800000
H       28.24920000      33.03760000      27.68300000
H       30.40430000      38.78890000      24.34420000
H       29.84720000      41.96430000      26.80870000
H       29.43840000      30.34530000      29.58950000
H       30.32820000      37.23550000      34.34880000
H       31.05900000      34.58050000      27.71220000
H       28.52040000      36.71170000      28.73380000
H       30.40170000      41.08480000      30.54860000
H       28.94990000      34.13250000      34.24720000
H       26.43340000      40.56660000      44.83030000
H       14.22850000      29.43750000      37.25190000
H       14.48970000      32.65990000      39.98800000
H       15.83560000      32.06080000      39.34930000
H       27.92040000      41.09740000      44.78110000
H       18.55240000      29.26290000      38.64550000
H       20.28080000      30.65450000      39.59190000
H       21.16630000      31.92410000      39.19970000
H       22.28180000      29.76410000      37.98860000
H       26.03840000      37.57030000      45.07130000
H       25.05630000      31.90090000      38.50420000
H       23.72220000      32.59930000      37.94810000
H       26.98420000      38.59740000      45.79610000
H       27.38330000      28.51320000      37.67520000
H       29.10790000      31.56510000      39.97980000
H       28.70360000      32.00310000      38.43640000
H       13.77990000      34.52410000      39.37960000
H       14.33410000      34.51730000      40.86770000
H       15.93980000      36.08610000      41.69460000
H       16.04580000      34.58490000      42.18640000
H       18.31620000      32.59400000      38.31280000
H       17.84620000      31.47190000      37.29060000
H       19.53940000      34.51060000      39.39500000
H       20.49280000      35.66970000      39.84030000
H       21.52270000      33.02450000      37.11660000
H       21.41200000      33.93280000      38.38550000
H       25.08840000      34.31990000      41.73370000
H       23.51640000      34.32900000      41.84360000
H       24.98220000      34.07430000      38.58920000
H       24.67140000      34.91290000      39.88880000
H       26.59040000      35.61420000      39.26140000
H       28.18080000      35.47510000      39.47500000
H       16.09990000      37.94320000      37.77070000
H       16.34050000      37.32070000      39.21000000
H       15.92020000      38.39170000      41.24000000
H       17.47040000      38.13490000      41.13050000
H       18.16730000      37.15830000      37.94070000
H       19.54760000      36.43940000      38.09750000
H       19.86150000      39.65890000      39.67430000
H       19.69060000      38.75360000      38.40200000
H       23.83210000      36.76240000      41.12300000
H       23.36340000      37.26410000      39.70480000
H       24.18310000      40.72010000      40.92280000
H       23.57940000      39.26820000      40.61060000
H       27.91320000      38.87650000      37.95640000
H       27.92590000      37.36170000      38.51920000
H       30.90550000      39.32230000      39.52390000
H       29.76620000      38.30750000      38.99610000
H       18.91770000      40.92890000      38.07760000
H       17.51030000      41.10050000      37.41260000
H       21.35560000      43.04660000      40.58200000
H       20.85850000      44.54840000      40.65920000
H       22.96450000      40.48390000      38.65680000
H       21.57800000      40.09020000      38.07240000
H       24.84510000      44.44870000      40.91110000
H       23.26700000      44.24370000      41.07180000
H       27.36440000      41.08250000      38.49450000
H       26.18820000      40.15260000      37.82630000
H       28.47740000      41.79320000      40.30240000
H       27.55400000      42.97710000      39.71640000
H       22.57580000      38.56610000      45.25140000
H       15.16080000      30.09960000      40.47050000
H       18.43780000      30.56140000      44.58160000
H       18.30920000      30.39490000      43.01870000
H       23.45140000      38.37710000      43.98780000
H       17.03690000      29.34000000      41.42740000
H       22.30350000      31.81070000      45.42770000
H       21.23720000      32.89590000      45.09100000
H       21.76530000      30.94040000      41.42960000
H       25.23030000      30.32810000      43.27180000
H       24.01110000      30.67160000      42.31070000
H       27.86410000      36.43500000      46.30590000
H       29.38620000      36.03380000      46.28880000
H       28.18820000      31.54230000      43.25150000
H       27.20090000      31.09430000      44.35210000
H       17.15600000      32.19400000      42.74780000
H       16.13090000      32.27770000      41.54440000
H       19.34810000      32.51080000      40.13690000
H       17.97210000      33.05000000      40.74000000
H       21.35060000      35.58630000      44.19870000
H       20.00280000      34.80380000      43.96060000
H       22.36890000      32.90500000      43.13320000
H       21.54450000      34.03880000      42.51910000
H       25.41590000      37.09100000      42.98760000
H       24.36270000      36.36280000      43.91530000
H       25.77310000      32.18170000      42.13140000
H       26.63800000      32.58630000      40.91730000
H       27.20140000      33.84420000      42.86400000
H       26.99650000      34.34070000      44.32670000
H       19.64180000      37.96930000      41.26520000
H       19.32840000      39.25680000      42.08570000
H       21.29970000      39.69390000      43.72480000
H       20.08880000      40.60690000      44.13470000
H       21.69180000      37.00750000      41.09010000
H       20.69550000      36.23780000      42.07470000
H       24.84710000      41.39960000      43.74460000
H       24.12760000      40.39920000      44.70610000
H       27.25680000      36.00230000      42.66590000
H       27.14460000      36.57980000      41.19040000
H       28.09920000      39.29980000      43.68070000
H       28.03970000      38.05210000      42.67690000
H       21.99080000      40.99980000      40.76450000
H       20.90580000      41.20320000      41.86600000
H       24.65750000      42.73240000      41.84630000
H       25.99650000      41.89050000      41.81050000
H       29.30190000      44.88590000      41.70290000
H       28.38790000      44.19040000      42.75080000
H       25.79750000      33.00380000      45.99870000
H       22.59070000      29.66960000      46.67810000
H       25.46780000      34.52800000      46.13510000
H       24.42530000      28.96770000      48.40660000
H       23.00440000      28.37970000      48.67640000
H       25.85410000      30.15520000      45.66740000
H       26.19550000      30.84710000      47.76500000
H       27.23420000      31.73950000      46.98810000
H       19.02730000      32.54680000      44.28980000
H       18.83040000      33.41780000      45.58290000
H       23.36490000      35.68170000      45.94110000
H       22.96750000      34.42810000      45.11170000
H       25.45830000      36.72790000      46.96950000
H       26.67090000      44.57460000      36.29900000
H       22.30620000      41.70440000      36.68670000
H       19.83800000      44.52350000      37.47790000
H       26.88530000      40.39110000      34.87500000
H       23.96780000      39.61260000      36.91870000
H       19.13440000      41.16470000      35.91450000
H       16.94950000      39.11680000      36.25290000
H       28.65460000      37.55300000      36.27490000
H       14.54300000      31.27590000      35.99940000
H       17.51050000      29.21210000      36.48740000
H       19.59800000      32.13680000      36.23380000
H       24.07860000      36.18180000      38.10950000
H       25.53110000      33.83690000      36.46370000
H       22.42040000      36.96490000      36.55340000
H       28.39340000      32.34190000      36.35650000
H       14.63270000      36.11760000      38.05750000
H       17.40750000      33.92700000      36.80150000
H       29.97360000      30.12130000      38.46010000
H       29.19000000      42.05160000      43.10190000
H       29.56430000      33.64430000      39.26280000
H       29.78980000      38.44770000      44.63830000
H       31.39030000      37.93540000      37.86660000
H       29.71260000      42.76020000      38.74510000
H       29.21000000      34.14870000      43.70080000
H       30.93330000      37.85570000      41.05100000
H       29.13030000      40.08050000      41.99210000
H       28.62730000      32.53160000      45.61850000
H       26.04760000      29.84640000      50.00580000
H       25.07690000      35.81020000      48.17880000
H       29.53460000      28.63640000      48.68970000
H       28.81770000      35.45510000      48.58170000
H       27.29450000      44.88730000      19.67760000
H       26.17450000      45.00360000      20.77510000
H       21.70380000      45.16020000      22.81950000
H       22.63170000      46.36830000      22.48660000
H       24.92530000      43.98450000      24.23920000
H       25.13080000      43.93100000      22.65700000
H       24.56120000      47.39980000      23.70210000
H       27.49660000      46.50120000      23.81920000
H       29.46770000      44.85530000      17.35080000
H       28.44650000      45.59380000      21.91030000
H       23.24820000      47.38410000      24.53630000
H       28.39150000      47.13020000      36.54460000
H       26.21750000      45.66110000      23.91330000
H       20.96990000      45.81280000      26.57270000
H       19.44300000      45.38620000      26.87820000
H       23.10830000      45.76830000      26.11660000
H       23.05140000      46.97720000      27.07510000
H       24.55380000      47.66810000      29.19740000
H       25.12120000      46.76530000      28.00180000
H       26.54920000      46.28740000      26.04370000
H       27.15270000      45.66540000      27.38380000
H       28.75320000      48.03840000      29.18130000
H       29.22770000      46.77800000      28.42140000
H       25.15980000      44.95810000      33.00140000
H       18.33830000      45.95500000      30.50140000
H       22.67820000      44.36790000      29.24480000
H       23.76700000      45.53700000      29.29250000
H       23.72780000      47.66400000      33.33830000
H       25.19880000      47.18160000      33.26790000
H       27.79130000      47.05250000      30.89670000
H       26.87260000      48.31630000      30.61940000
H       28.85580000      47.79240000      33.71870000
H       28.68250000      48.50520000      32.32730000
H       24.90990000      49.67720000      30.52920000
H       24.83250000      48.45440000      31.53890000
H       18.36850000      44.87420000      35.82680000
H       17.63260000      44.15570000      34.65520000
H       21.50260000      46.27020000      33.76920000
H       22.88100000      45.70390000      33.39240000
H       26.26430000      45.01460000      34.13590000
H       23.09810000      46.45620000      35.61720000
H       23.29430000      47.44850000      36.81070000
H       30.87570000      48.62760000      33.44410000
H       29.29630000      43.66350000      25.61410000
H       29.92820000      48.51850000      26.81310000
H       29.84750000      45.24850000      31.45490000
H       28.53890000      45.48740000      35.05110000
H       22.28160000      45.31830000      37.38670000
H       21.77930000      44.38800000      38.59780000
H       25.19470000      45.96830000      37.32190000
H       26.73660000      46.33790000      37.59530000
H       27.14710000      44.75820000      40.70070000
H       26.39870000      44.89090000      39.25280000
H       28.84060000      47.09340000      38.02490000
H       30.89710000      46.14120000      39.39880000
H       31.65010000      44.51890000      41.64210000
H       30.87160000      14.79560000      18.23490000
H       37.88100000      15.97590000      22.77400000
H       33.11320000      15.01980000      18.83160000
H       32.28710000      16.36780000      18.81020000
H       38.95320000      16.24020000      21.63380000
H       31.45720000      14.70950000      23.18830000
H       33.93300000      13.47010000      20.78450000
H       34.48220000      13.10380000      19.35620000
H       32.57100000      13.11950000      22.67650000
H       33.66060000      11.99630000      22.67270000
H       39.29740000      14.69730000      34.74550000
H       40.05430000      15.75150000      35.64340000
H       38.18420000      15.05980000      24.98260000
H       36.80080000      14.57730000      24.38870000
H       30.92870000      10.37170000      26.69820000
H       37.29960000      13.67920000      35.30820000
H       32.78810000      11.91770000      26.35460000
H       34.18780000      11.91350000      27.05470000
H       35.17860000      11.74730000      29.47400000
H       36.11130000      12.46800000      28.44790000
H       36.98270000      14.67040000      34.13310000
H       30.45120000      15.00790000      26.22760000
H       34.57250000      13.24910000      25.30640000
H       34.53610000      13.86600000      23.88180000
H       39.81850000      14.84340000      27.12760000
H       38.47530000      15.65170000      27.15440000
H       40.51750000      14.80820000      29.26190000
H       40.95740000      13.39620000      28.72640000
H       33.16940000      13.96480000      34.10720000
H       34.37020000      14.48870000      33.24860000
H       31.80020000      11.48080000      30.50070000
H       32.29290000      11.34010000      32.80890000
H       33.11070000      12.60740000      32.40940000
H       34.31650000      11.11310000      31.52510000
H       35.35040000       9.97672000      31.12610000
H       36.59890000      12.08090000      31.66770000
H       37.41720000      12.94360000      32.72060000
H       31.26290000      15.88410000      30.20870000
H       30.41320000      15.30890000      33.18250000
H       34.28510000      13.99260000      28.65670000
H       33.59790000      15.16010000      29.45150000
H       36.71820000      15.41740000      29.88270000
H       36.98400000      14.33090000      31.04990000
H       42.83430000      14.98390000      28.76380000
H       43.19780000      15.94770000      29.91760000
H       35.86330000      13.53650000      37.47950000
H       31.85440000      13.72950000      36.02900000
H       32.36440000      12.37180000      35.45220000
H       32.31620000      15.72370000      39.99280000
H       29.85230000      14.76310000      37.02680000
H       33.66930000      13.52070000      37.24350000
H       34.31130000      14.87050000      37.68130000
H       37.67880000      16.25720000      38.76160000
H       37.30300000      15.25040000      37.59910000
H       33.35650000      14.60550000      39.63930000
H       28.67850000      13.19320000      40.80750000
H       37.24660000      12.80950000      37.68040000
H       30.55260000      25.03080000      12.12720000
H       33.11140000      24.91670000      12.39260000
H       31.85790000      26.98270000      11.86660000
H       28.72820000      31.42070000      10.33210000
H       34.59320000      31.61110000       9.75401000
H       34.36310000      25.73480000      12.95750000
H       44.15850000      26.87450000      21.61080000
H       35.65190000      24.06660000      12.59050000
H       36.82810000      25.03000000      12.76310000
H       32.61440000      27.96320000      12.83670000
H       44.46660000      26.12300000      22.97960000
H       36.86350000      29.63080000      11.94650000
H       35.57610000      29.82730000      11.10870000
H       33.44730000      16.75530000      17.02830000
H       34.60000000      17.78110000      17.26640000
H       32.46560000      18.69320000      16.69270000
H       32.13640000      20.51250000      15.32860000
H       31.54560000      21.13610000      14.04280000
H       34.37770000      18.63660000      15.07180000
H       33.95830000      19.94750000      14.32670000
H       35.78950000      20.27270000      15.57670000
H       36.75520000      21.51280000      15.61620000
H       41.48000000      20.35600000      17.21430000
H       40.03400000      19.87400000      16.85260000
H       28.91270000      21.46120000      13.88320000
H       42.23980000      25.29480000      21.01140000
H       30.56330000      24.47250000      16.70860000
H       32.03200000      24.64130000      16.17110000
H       32.92840000      22.78630000      15.09100000
H       33.45730000      24.12520000      14.43180000
H       35.15830000      24.88040000      17.54900000
H       34.76650000      24.00110000      16.30200000
H       37.37220000      22.94580000      13.64760000
H       37.94450000      21.48450000      13.67970000
H       40.29230000      22.07700000      16.97560000
H       39.34610000      23.33070000      17.15110000
H       41.68530000      24.76300000      22.41850000
H       30.45410000      26.49090000      15.67610000
H       32.24670000      28.16920000      17.47440000
H       33.19370000      27.92750000      16.25570000
H       35.77020000      27.67280000      12.30790000
H       35.84540000      27.45910000      13.84000000
H       37.12540000      28.36820000      15.52790000
H       35.85660000      29.15940000      15.87900000
H       37.13390000      24.72740000      16.34380000
H       38.61520000      24.86120000      15.62950000
H       37.96400000      28.07440000      17.51650000
H       38.19430000      26.74920000      16.62990000
H       39.54000000      23.62630000      14.26790000
H       40.56320000      24.69810000      14.82580000
H       43.41730000      27.03510000      16.79710000
H       42.40950000      28.00620000      16.12390000
H       31.21460000      17.56420000      20.47450000
H       30.92760000      18.16830000      19.09990000
H       35.49460000      15.22950000      20.18250000
H       36.73110000      16.05200000      20.84040000
H       41.05570000      15.80790000      20.47370000
H       41.30090000      16.54110000      21.84470000
H       28.63330000      18.20430000      18.72690000
H       33.91560000      20.14340000      20.08210000
H       32.74240000      19.08190000      20.13280000
H       36.02090000      17.34030000      19.01870000
H       35.81690000      18.88200000      18.81910000
H       35.87900000      21.79600000      21.52860000
H       36.03910000      20.26120000      21.83180000
H       37.77090000      18.79550000      17.92350000
H       37.65980000      20.05880000      17.05740000
H       41.64230000      19.13040000      21.70600000
H       40.65270000      20.03640000      20.83520000
H       46.56860000      21.16140000      23.70840000
H       45.58470000      20.33280000      22.85090000
H       36.92340000      24.73020000      22.76350000
H       30.97180000      22.31730000      20.79540000
H       38.15570000      24.52930000      21.81120000
H       32.44520000      23.77970000      20.13130000
H       33.34450000      23.83720000      21.40690000
H       35.50070000      21.62560000      19.19370000
H       35.39290000      20.90900000      17.82030000
H       36.53140000      23.77590000      19.79600000
H       35.00420000      23.51070000      20.13950000
H       38.92150000      20.38660000      19.15040000
H       39.16300000      21.53720000      20.26510000
H       40.16360000      23.59540000      20.96960000
H       38.91720000      23.70770000      20.03840000
H       42.30080000      20.83080000      19.71600000
H       41.68150000      22.03060000      18.92400000
H       45.06710000      23.15130000      20.08180000
H       43.97280000      22.45190000      19.14640000
H       31.46820000      25.88600000      18.31510000
H       32.02530000      27.37310000      20.31640000
H       31.62450000      28.66840000      21.13850000
H       33.92660000      26.66780000      18.33550000
H       33.87660000      25.50750000      19.41830000
H       36.75560000      26.46770000      21.20660000
H       35.62720000      26.67850000      20.09780000
H       38.08990000      24.92870000      18.19780000
H       38.42770000      25.66370000      19.55680000
H       40.28240000      27.32310000      19.89490000
H       40.27950000      26.06200000      20.83970000
H       41.34710000      24.20150000      16.77110000
H       42.71440000      24.90400000      16.47010000
H       42.72530000      27.24790000      19.73300000
H       43.78950000      26.15790000      19.33820000
H       45.25130000      25.52620000      17.38130000
H       44.52010000      24.44060000      18.26460000
H       32.59390000      27.40320000      22.74560000
H       32.56390000      26.43880000      24.02860000
H       34.06630000      18.36000000      21.59630000
H       34.92540000      17.03490000      21.37890000
H       37.87010000      19.56290000      20.82640000
H       37.45550000      18.22540000      21.56340000
H       42.86050000      18.21020000      23.17260000
H       41.51320000      17.62920000      23.77540000
H       29.15240000      27.91590000      22.52520000
H       31.94460000      20.58460000      21.72290000
H       34.47770000      23.45820000      23.32970000
H       33.84600000      22.13430000      22.85630000
H       36.37940000      21.36670000      23.63130000
H       37.74200000      21.53820000      24.41130000
H       42.19550000      22.42270000      23.33740000
H       41.89650000      21.07630000      22.52110000
H       46.11430000      22.39780000      22.01820000
H       45.54150000      23.79250000      22.44680000
H       33.16800000      16.59640000      22.71720000
H       35.05790000      15.52080000      25.65080000
H       35.43720000      19.28100000      24.35790000
H       32.02890000      24.45790000      25.62620000
H       36.33870000      23.19640000      24.30710000
H       44.50150000      24.09740000      24.60490000
H       47.46550000      24.27780000      21.54030000
H       34.11740000      28.14240000      24.54210000
H       46.49260000      27.12340000      22.75980000
H       34.07430000      29.02170000      14.40990000
H       37.09000000      30.06830000      14.09330000
H       37.00220000      31.47080000      13.34860000
H       39.92290000      28.36440000      16.48240000
H       35.91150000      29.47490000      17.99320000
H       34.43300000      29.12690000      17.46120000
H       37.00080000      28.25820000      19.62000000
H       41.36210000      28.66120000      18.22960000
H       43.83800000      29.45320000      16.62870000
H       30.67440000      29.85240000      22.81040000
H       35.38500000      28.67990000      21.40850000
H       39.48780000      28.03610000      21.74820000
H       43.17070000      30.39160000      23.23320000
H       45.97540000      29.87320000      23.33990000
H       32.48030000      16.65470000      24.12080000
H       46.17930000      29.21190000      35.73860000
H       35.70970000      16.91990000      25.41660000
H       45.75610000      26.25220000      32.16580000
H       40.23920000      16.59870000      25.73160000
H       41.07040000      17.90620000      26.06430000
H       46.79480000      26.06050000      33.34040000
H       33.01410000      19.30770000      24.96100000
H       32.66950000      20.79480000      24.60640000
H       35.47800000      18.11020000      23.33620000
H       41.90490000      27.59280000      34.25790000
H       39.30280000      20.40030000      24.83050000
H       40.43180000      21.30600000      24.12710000
H       44.58290000      19.18880000      24.44530000
H       43.50440000      20.16440000      23.78140000
H       32.71970000      24.09670000      24.25010000
H       43.19070000      26.09250000      33.48550000
H       41.78050000      25.50940000      33.82880000
H       35.75120000      24.66560000      24.67260000
H       38.77700000      27.92080000      36.24610000
H       40.99530000      24.09530000      24.68820000
H       42.06200000      25.20360000      24.64350000
H       45.68130000      25.12190000      24.54610000
H       48.66990000      24.84880000      20.71000000
H       37.30470000      24.71960000      33.29660000
H       35.98600000      24.67820000      32.46130000
H       31.14490000      28.13640000      24.09620000
H       29.64910000      28.16520000      24.69980000
H       35.55650000      28.68520000      25.07490000
H       36.88530000      28.41280000      37.02130000
H       39.26260000      27.46260000      24.85460000
H       39.67020000      28.70090000      23.95350000
H       44.23950000      28.38580000      23.42020000
H       44.09880000      29.24680000      24.78510000
H       47.85690000      26.44730000      22.45710000
H       32.25480000      28.06780000      34.72700000
H       32.52040000      15.26130000      27.49730000
H       31.19220000      15.82270000      28.05000000
H       37.20090000      17.04320000      28.60600000
H       36.29120000      16.23850000      27.57690000
H       38.74020000      15.57870000      30.59590000
H       40.08420000      15.86570000      31.31740000
H       44.23680000      16.85490000      28.31770000
H       43.42940000      18.05790000      27.74930000
H       31.16300000      19.22680000      26.80780000
H       32.93750000      26.68510000      34.45850000
H       33.12440000      19.76490000      27.98340000
H       31.74560000      20.14230000      28.71380000
H       33.69950000      17.22920000      25.78960000
H       32.22380000      17.07730000      26.22130000
H       37.60550000      19.77280000      26.58280000
H       37.36300000      19.51550000      28.12120000
H       39.09400000      18.30370000      25.22320000
H       37.62290000      18.70300000      24.66360000
H       41.08830000      18.19330000      30.22930000
H       40.56690000      19.66980000      30.35670000
H       42.18210000      19.72300000      27.32080000
H       41.27260000      18.82410000      28.21430000
H       42.48800000      21.65200000      28.44930000
H       43.80960000      20.82050000      28.34930000
H       46.02440000      19.70480000      26.00950000
H       45.25240000      18.42000000      26.54920000
H       32.68070000      28.73900000      36.63460000
H       31.08060000      22.34500000      25.44640000
H       30.65060000      23.51400000      27.41880000
H       32.17620000      23.13540000      27.53820000
H       34.21010000      20.57470000      26.23610000
H       35.45920000      20.40740000      27.20490000
H       35.35600000      25.09340000      27.43140000
H       36.35910000      25.33780000      28.63630000
H       39.71090000      23.77810000      26.66490000
H       39.48980000      22.82360000      25.39650000
H       40.40160000      23.42920000      28.83150000
H       38.83490000      23.52840000      28.57550000
H       43.51060000      22.41820000      26.72830000
H       42.91710000      23.28950000      25.54890000
H       43.76600000      26.27390000      26.63590000
H       43.94790000      24.77970000      27.01030000
H       47.11640000      22.28610000      25.97930000
H       45.59410000      22.20940000      25.69190000
H       48.37590000      24.31700000      27.85670000
H       47.15650000      23.39040000      27.93360000
H       28.23540000      26.55910000      25.73180000
H       31.61450000      29.34850000      29.50040000
H       32.76720000      28.26660000      29.24860000
H       34.02250000      25.32840000      25.57420000
H       34.94230000      26.59780000      25.72290000
H       35.83210000      29.13210000      29.08370000
H       35.44160000      28.16860000      27.92340000
H       38.86430000      25.22690000      25.09610000
H       38.26370000      25.83550000      23.77240000
H       39.99570000      27.18520000      28.29720000
H       40.16700000      25.64040000      28.21560000
H       41.49270000      26.61440000      26.47940000
H       41.47320000      27.36660000      25.12380000
H       43.73120000      29.78610000      28.73740000
H       43.44190000      28.65880000      29.74520000
H       47.35160000      26.32360000      24.76730000
H       47.29550000      25.31470000      26.05300000
H       46.54120000      28.56160000      27.70590000
H       46.51570000      27.59300000      26.42760000
H       32.86050000      15.40370000      31.92280000
H       32.89720000      16.83710000      31.20240000
H       35.95790000      15.84250000      32.29020000
H       35.12950000      16.47680000      33.55800000
H       40.53630000      16.28890000      33.74680000
H       39.71220000      17.37450000      32.94810000
H       45.56940000      16.70800000      32.31220000
H       45.46670000      18.14210000      32.95540000
H       29.12290000      27.23850000      33.37270000
H       32.54290000      18.74270000      29.92440000
H       32.14620000      21.17360000      32.31430000
H       30.78650000      21.42280000      33.07520000
H       33.62090000      20.23780000      30.91510000
H       33.74000000      21.65030000      30.17610000
H       36.97310000      21.55790000      30.18030000
H       35.79260000      20.90810000      30.96830000
H       37.39180000      19.31160000      30.15920000
H       38.72900000      18.56890000      29.70760000
H       41.18710000      20.53760000      32.25090000
H       39.81300000      21.21730000      32.00600000
H       43.40840000      17.44050000      31.52600000
H       41.95670000      16.97910000      31.86990000
H       43.49440000      20.02750000      32.51710000
H       43.75970000      21.51620000      32.16670000
H       44.65890000      20.11930000      30.39260000
H       44.86490000      19.15270000      29.12350000
H       30.63990000      21.05530000      30.53640000
H       46.23780000      24.64250000      34.82180000
H       31.70280000      24.82160000      31.19070000
H       33.06230000      24.59310000      31.98060000
H       34.25230000      23.48670000      28.69490000
H       34.05070000      22.05650000      28.05720000
H       34.31690000      23.20670000      33.53660000
H       34.39340000      22.70440000      32.06640000
H       37.26730000      21.82410000      28.07300000
H       36.60950000      23.21860000      28.48590000
H       39.86510000      24.27790000      33.65420000
H       40.13170000      25.05670000      32.33030000
H       42.42700000      23.21110000      29.87140000
H       41.37900000      22.12470000      30.42070000
H       43.97670000      23.88580000      31.08690000
H       44.65200000      24.77680000      29.96390000
H       46.12830000      21.54530000      29.23450000
H       45.49090000      22.93630000      29.51480000
H       47.05650000      22.95270000      31.06300000
H       47.09840000      24.28510000      31.90070000
H       46.18840000      23.07910000      33.37850000
H       29.19280000      24.91100000      31.15900000
H       45.42640000      22.52030000      34.67420000
H       30.40130000      26.79690000      31.63840000
H       31.17390000      27.37020000      32.85910000
H       34.17690000      26.10930000      29.12990000
H       33.16420000      26.20110000      30.32030000
H       33.58000000      28.48320000      33.10820000
H       34.90370000      29.32960000      33.33350000
H       38.21400000      26.21210000      29.69680000
H       37.34520000      27.20320000      28.81790000
H       38.17210000      25.81310000      31.76270000
H       39.27990000      26.96250000      31.57050000
H       43.41160000      26.47610000      28.88390000
H       41.97200000      26.85300000      29.25150000
H       44.18910000      27.72100000      32.31480000
H       43.59480000      26.73740000      31.22260000
H       46.86500000      25.62050000      29.41380000
H       45.66370000      25.90790000      28.45220000
H       47.78210000      27.11450000      31.53370000
H       47.71750000      28.06890000      30.29900000
H       48.86700000      24.57020000      30.31990000
H       48.91240000      26.09810000      30.00270000
H       30.78430000      17.29870000      34.31390000
H       42.35790000      24.21470000      35.31430000
H       34.48710000      16.73990000      36.29780000
H       35.67710000      16.51780000      37.38410000
H       39.43200000      18.02160000      36.06670000
H       43.65740000      23.50460000      33.32170000
H       42.17700000      23.57890000      32.76000000
H       30.55030000      19.38210000      33.52490000
H       29.68190000      20.71650000      37.08440000
H       32.97060000      16.92770000      34.55300000
H       33.88140000      18.17540000      34.94670000
H       38.16930000      22.88310000      34.14840000
H       33.68740000      19.62110000      36.87390000
H       37.43300000      17.24890000      33.15320000
H       37.82260000      17.63670000      31.71510000
H       39.77460000      20.21010000      35.60830000
H       41.57330000      18.63780000      33.49260000
H       41.88180000      19.91490000      34.38930000
H       37.69720000      21.14530000      32.40430000
H       43.83240000      21.03210000      35.72590000
H       45.90160000      19.88080000      34.70380000
H       45.62140000      20.16640000      33.20440000
H       38.45600000      20.61170000      33.69470000
H       29.10940000      21.75920000      34.63020000
H       29.44550000      22.92920000      33.65510000
H       30.88950000      23.00320000      35.67100000
H       34.13460000      21.55930000      35.40200000
H       33.17010000      22.77320000      35.46990000
H       33.06820000      24.91240000      36.11820000
H       33.97480000      29.61030000      26.29880000
H       38.03080000      29.07520000      25.47880000
H       40.67200000      29.17220000      26.17110000
H       44.85030000      29.31010000      26.73250000
H       47.93820000      29.76110000      26.38310000
H       29.41750000      28.91690000      30.24240000
H       34.72340000      29.53100000      31.17160000
H       38.46160000      30.24570000      29.12370000
H       40.11920000      28.92810000      29.97890000
H       47.18930000      30.03590000      29.30840000
H       45.78030000      29.38130000      29.65030000
H       49.00880000      30.38820000      32.79160000
H       29.37720000      30.45330000      35.42330000
H       33.21270000      30.78410000      32.61250000
H       32.78670000      31.87360000      33.64870000
H       40.53920000      28.53440000      32.67440000
H       39.31300000      29.29750000      32.03830000
H       45.51630000      28.95510000      33.60400000
H       48.29260000      29.76670000      34.80980000
H       30.40420000      17.18070000      40.70880000
H       30.24620000      17.64070000      39.23130000
H       34.20950000      16.44870000      41.06680000
H       34.37870000      17.78880000      40.34790000
H       38.04750000      16.83520000      40.94580000
H       39.31220000      16.83730000      40.03540000
H       40.94000000      25.73630000      43.80890000
H       40.98450000      27.18780000      44.43380000
H       29.49140000      18.65750000      37.54340000
H       32.16120000      19.90160000      41.59370000
H       31.26950000      19.22860000      40.53380000
H       32.70240000      18.13300000      39.04540000
H       33.98940000      17.70440000      38.21430000
H       34.26710000      20.15540000      39.58020000
H       34.10060000      21.47410000      40.44520000
H       37.00670000      18.78030000      37.49640000
H       36.97000000      20.32800000      37.80350000
H       38.11080000      19.38010000      41.24920000
H       39.23770000      19.40950000      40.15480000
H       40.12960000      17.97350000      38.24220000
H       41.11710000      18.84380000      39.09570000
H       42.66810000      21.00780000      39.19550000
H       41.16010000      21.06600000      38.94970000
H       28.87780000      22.82250000      37.88090000
H       29.22650000      21.87350000      39.05280000
H       31.58470000      24.69510000      40.03570000
H       32.76410000      23.77590000      40.43660000
H       31.92710000      21.05160000      39.09750000
H       33.17320000      21.51900000      38.37050000
H       36.31760000      23.61960000      39.03010000
H       36.04690000      25.16060000      39.17900000
H       37.67850000      20.98730000      39.74460000
H       36.18440000      21.40520000      39.38440000
H       39.59580000      23.07440000      39.88070000
H       38.32500000      22.92630000      38.97430000
H       41.79370000      20.73690000      36.83770000
H       41.61530000      21.90530000      35.79140000
H       42.17700000      22.50630000      40.76180000
H       43.63600000      23.09260000      40.92250000
H       44.21580000      24.25320000      37.78290000
H       43.60310000      23.15180000      38.76520000
H       36.12570000      26.51390000      44.68620000
H       30.15080000      24.39370000      37.29440000
H       36.67430000      25.16250000      45.33700000
H       31.65720000      27.49220000      40.55930000
H       31.35490000      28.46540000      39.36030000
H       33.77090000      26.94910000      37.08770000
H       33.24130000      27.60260000      38.44880000
H       37.20630000      26.44340000      40.60250000
H       35.61940000      26.66590000      40.69730000
H       36.65470000      26.03010000      36.09400000
H       36.29970000      24.78240000      36.99980000
H       40.13400000      28.31230000      40.02780000
H       38.79970000      29.05820000      39.57250000
H       39.86600000      24.83870000      38.06420000
H       40.99470000      24.92530000      36.99980000
H       44.65880000      27.36850000      37.72960000
H       45.04810000      28.89910000      37.68270000
H       43.59320000      26.04210000      36.01430000
H       45.12310000      25.84550000      36.25060000
H       31.42890000      16.71600000      44.57000000
H       30.71710000      18.08730000      44.83950000
H       29.73470000      16.90460000      42.81590000
H       31.43130000      23.33170000      43.74910000
H       30.57800000      22.00080000      43.72550000
H       33.58090000      18.31510000      42.31640000
H       32.34810000      18.41730000      43.30360000
H       34.11820000      19.73640000      43.98660000
H       33.98130000      20.52520000      45.31960000
H       36.23690000      17.80660000      41.72670000
H       37.16090000      18.17400000      42.96180000
H       37.24100000      18.09590000      45.38980000
H       36.14810000      19.10550000      44.89420000
H       30.31910000      21.24950000      41.00930000
H       34.62510000      29.06030000      46.98850000
H       32.18490000      25.38350000      44.48370000
H       31.15870000      25.77270000      43.30320000
H       32.62680000      22.25810000      42.28280000
H       34.00730000      22.99360000      42.17470000
H       35.96700000      23.21350000      42.98820000
H       35.46840000      24.51090000      43.70450000
H       37.33140000      21.06740000      43.68850000
H       35.89010000      21.26320000      44.23470000
H       39.19490000      24.09310000      43.92130000
H       39.32240000      24.77780000      42.50020000
H       40.16610000      22.86480000      42.04210000
H       39.83850000      21.45800000      41.34880000
H       30.18290000      25.84360000      41.32970000
H       33.50900000      27.33460000      42.72920000
H       32.33220000      28.11460000      43.43810000
H       34.57770000      25.34130000      41.96880000
H       33.51740000      25.73390000      40.90110000
H       36.90910000      28.47110000      43.41280000
H       35.35430000      28.39650000      43.79070000
H       38.67470000      24.85910000      40.34950000
H       39.53030000      26.10090000      40.71140000
H       39.40200000      28.78230000      44.12190000
H       39.12100000      28.67200000      45.64240000
H       41.06100000      26.33400000      39.12380000
H       41.77340000      26.73090000      40.52700000
H       43.56330000      27.51110000      41.54930000
H       42.53180000      26.78650000      42.56400000
H       44.89540000      24.22350000      42.56620000
H       44.01810000      25.23400000      41.74320000
H       27.04040000      18.67770000      44.39730000
H       32.99500000      26.36640000      46.34370000
H       31.12310000      19.95840000      46.14850000
H       30.36780000      18.90040000      47.01630000
H       28.32030000      21.64300000      43.64470000
H       34.29120000      25.63740000      45.75610000
H       30.13780000      24.27620000      47.57190000
H       32.14940000      21.66540000      45.16000000
H       32.65180000      21.89230000      46.63160000
H       33.68190000      23.37300000      48.26610000
H       33.08620000      24.20680000      47.06510000
H       37.48010000      22.95450000      44.93140000
H       38.41980000      23.39620000      46.11770000
H       31.19900000      28.11900000      45.72890000
H       30.36620000      25.13300000      45.41040000
H       31.19410000      28.12880000      47.31260000
H       46.63930000      27.75100000      35.31920000
H       40.72400000      28.27050000      35.00380000
H       40.01930000      27.15670000      36.83690000
H       36.78000000      28.51030000      35.43200000
H       32.30020000      30.06920000      35.83120000
H       47.44140000      25.25200000      35.63980000
H       30.95040000      15.92960000      35.11850000
H       38.74300000      16.92210000      36.97690000
H       42.68950000      23.51580000      36.67880000
H       31.14350000      20.23060000      37.10040000
H       35.15330000      19.68500000      36.37570000
H       37.69450000      24.07830000      35.14970000
H       38.27470000      19.82620000      35.94600000
H       44.66610000      21.89120000      36.70140000
H       31.61350000      22.72800000      37.05970000
H       34.56550000      25.29600000      35.78500000
H       30.90560000      29.36640000      37.42880000
H       34.45190000      29.57620000      37.72200000
H       36.75280000      29.78170000      39.25480000
H       40.00400000      29.94960000      36.47710000
H       44.98310000      30.93250000      37.50240000
H       33.06170000      29.35510000      40.71180000
H       33.57990000      29.45190000      42.15640000
H       38.72530000      28.96230000      41.78070000
H       39.76600000      31.79180000      41.49080000
H       44.80330000      28.44690000      39.86160000
H       33.35100000      29.60100000      45.08290000
H       40.31200000      30.52900000      45.33000000
H       36.78100000      29.07750000      47.06220000
H       29.46250000      24.82330000      49.53030000
H       34.60640000      28.75210000      48.50040000
H       31.10360000      23.41070000      48.39410000
H       32.90050000      30.31240000      49.07640000
H       31.08850000      34.74350000      12.38580000
H       33.73830000      31.61740000      11.08020000
H       31.68630000      32.73150000      11.73780000
H       35.70240000      32.54850000      11.93380000
H       35.86370000      39.45130000      12.30190000
H       31.66670000      31.16320000      12.00580000
H       40.73050000      41.74830000      22.41120000
H       35.03460000      33.03330000      13.24780000
H       39.17000000      41.52300000      22.46980000
H       32.52300000      36.32990000      13.71170000
H       30.98190000      36.55710000      13.90690000
H       36.69060000      38.57890000      13.29970000
H       35.94930000      41.64030000      20.62430000
H       30.49790000      30.02820000      13.45080000
H       36.85810000      40.63950000      21.44890000
H       30.84140000      29.99500000      16.00910000
H       31.14580000      31.40140000      15.31220000
H       32.56880000      29.42420000      14.72770000
H       35.44200000      32.81100000      16.18370000
H       34.97430000      31.36360000      16.67750000
H       30.54600000      41.37420000      21.75150000
H       32.10080000      41.13520000      21.53130000
H       39.36310000      31.78400000      15.86520000
H       39.05450000      31.04080000      14.52740000
H       40.58380000      29.70320000      16.03180000
H       42.90240000      31.83930000      16.87200000
H       41.78820000      32.64770000      17.67070000
H       28.33650000      41.56850000      22.08100000
H       31.64830000      33.70090000      14.86010000
H       43.51010000      38.68840000      20.65610000
H       30.69520000      34.12610000      16.81600000
H       31.16180000      34.96040000      18.08690000
H       33.75970000      32.59180000      14.82750000
H       33.04700000      32.53670000      13.37500000
H       36.10490000      35.60980000      15.63800000
H       35.77330000      36.51110000      16.88220000
H       37.52690000      33.99480000      15.68940000
H       36.62890000      33.77150000      14.38410000
H       39.84600000      34.15220000      15.96010000
H       39.01250000      34.79300000      17.17560000
H       41.87380000      33.55350000      15.60040000
H       40.86680000      32.99720000      14.59250000
H       44.46850000      39.34000000      21.71420000
H       29.33150000      37.26710000      15.32300000
H       33.28030000      39.02940000      14.66710000
H       32.04980000      40.04690000      14.68940000
H       34.53480000      37.11660000      14.82860000
H       34.61380000      37.81670000      13.43700000
H       36.48060000      41.44640000      15.90180000
H       37.34260000      40.14260000      15.69600000
H       38.53810000      38.41200000      15.05050000
H       37.09590000      37.75530000      15.33920000
H       40.86660000      38.41740000      16.03700000
H       40.25130000      39.79790000      15.67700000
H       30.18840000      41.00170000      15.56450000
H       41.71910000      36.55210000      22.59350000
H       30.47800000      42.87830000      16.85200000
H       29.61540000      41.77180000      17.52410000
H       34.21990000      41.41210000      15.19050000
H       34.45690000      42.52060000      16.25640000
H       40.36050000      37.19190000      22.11550000
H       38.13960000      37.49530000      22.37280000
H       31.57890000      30.81300000      20.33730000
H       32.35990000      31.58970000      19.17550000
H       38.95990000      37.30010000      23.71020000
H       35.11260000      31.01200000      21.19110000
H       34.85160000      32.15660000      20.12620000
H       33.64160000      37.48190000      22.06560000
H       37.81720000      29.60440000      19.39590000
H       34.33310000      38.20350000      20.80290000
H       38.39930000      31.40270000      20.89130000
H       39.42870000      31.25720000      19.72100000
H       41.90990000      29.31650000      19.55810000
H       31.44820000      36.70540000      21.09040000
H       42.54060000      30.92730000      21.20950000
H       43.36460000      31.37660000      19.91610000
H       44.68440000      30.52360000      17.42340000
H       45.64590000      35.80680000      21.95380000
H       29.48130000      33.23180000      18.71740000
H       30.10490000      31.82710000      18.96930000
H       33.71670000      34.89830000      20.76590000
H       32.76020000      35.77180000      19.85350000
H       33.99740000      32.59880000      17.95030000
H       33.51580000      33.59400000      19.10980000
H       36.71390000      36.44000000      20.62940000
H       35.90000000      37.27170000      21.67230000
H       37.90930000      32.98260000      18.04990000
H       37.11440000      32.19790000      19.11470000
H       40.12510000      35.10780000      21.31480000
H       38.99430000      33.93850000      21.31450000
H       41.35270000      31.92980000      19.63790000
H       40.38320000      33.20560000      19.71290000
H       44.19260000      34.42390000      21.51660000
H       44.06720000      35.58710000      20.42110000
H       43.92860000      32.86430000      18.41250000
H       44.71280000      33.36830000      19.66270000
H       29.18740000      39.34340000      18.12100000
H       46.13530000      35.53810000      23.41540000
H       30.93300000      38.41310000      19.54030000
H       30.87270000      39.97040000      19.87250000
H       35.58570000      37.37580000      18.88170000
H       35.05680000      35.90640000      19.08060000
H       35.51060000      39.61500000      19.66290000
H       34.32020000      39.30350000      18.61960000
H       38.87580000      35.34630000      19.38760000
H       37.61140000      35.86030000      18.59490000
H       39.07300000      37.73550000      18.96610000
H       39.25310000      39.32330000      18.82500000
H       41.34350000      36.60510000      17.28600000
H       40.91250000      37.89300000      18.09270000
H       42.70220000      37.16770000      19.05530000
H       42.22020000      36.91000000      20.53460000
H       41.11780000      33.28490000      24.57220000
H       32.09710000      44.24640000      20.33990000
H       31.35320000      42.89740000      20.12090000
H       32.99440000      39.89000000      16.76120000
H       32.22540000      39.75220000      18.15140000
H       34.76030000      43.15310000      19.44360000
H       35.93400000      43.95000000      20.26050000
H       38.01310000      41.02870000      17.68350000
H       37.74360000      40.91980000      19.24010000
H       39.59190000      42.96720000      20.70490000
H       39.07900000      42.65860000      19.26910000
H       42.12000000      34.21550000      23.78640000
H       36.90390000      32.55410000      21.58440000
H       37.84110000      32.30280000      22.84200000
H       33.87950000      29.00010000      21.29150000
H       33.27420000      33.66580000      22.72610000
H       39.40090000      29.58180000      21.62030000
H       34.54490000      33.26150000      21.91880000
H       41.80220000      31.19690000      23.45230000
H       47.39140000      29.30410000      23.07950000
H       30.34510000      33.76070000      23.22200000
H       39.69390000      31.60540000      24.61500000
H       43.38180000      32.65760000      22.90500000
H       44.32010000      33.65090000      23.70710000
H       47.34260000      31.57450000      24.02800000
H       32.34410000      36.01340000      23.38580000
H       36.50620000      35.71990000      23.11590000
H       40.03260000      35.44330000      24.52260000
H       45.82580000      38.01680000      23.13450000
H       31.04920000      41.34030000      25.32600000
H       33.96210000      39.84600000      22.03990000
H       38.22380000      39.51450000      23.06780000
H       42.57160000      40.30680000      22.09700000
H       34.04450000      44.11090000      23.47320000
H       39.38560000      43.35670000      23.52260000
H       45.54110000      41.09200000      32.10030000
H       31.98770000      32.62220000      24.36530000
H       31.62330000      31.93740000      22.98650000
H       44.77080000      39.89510000      32.76880000
H       37.56080000      31.02200000      24.87800000
H       37.81420000      32.58380000      25.06920000
H       40.87880000      31.11570000      25.55520000
H       41.84800000      41.63970000      31.92000000
H       40.83970000      41.50500000      33.18320000
H       47.98790000      31.78870000      25.41440000
H       39.60770000      42.96810000      34.67780000
H       38.78310000      41.67940000      34.33470000
H       31.82300000      37.47230000      23.22700000
H       36.54340000      42.53030000      31.04520000
H       35.31550000      34.91660000      23.64340000
H       39.60350000      36.34970000      25.72050000
H       37.21110000      41.18920000      31.45020000
H       44.00950000      36.41300000      23.30520000
H       43.26800000      37.22890000      24.39410000
H       34.69540000      43.72080000      34.44730000
H       46.63100000      39.35050000      23.04920000
H       35.07940000      43.26780000      32.96640000
H       31.66640000      40.59660000      24.11770000
H       33.11330000      40.20670000      32.93610000
H       34.01400000      41.02560000      23.04820000
H       33.87530000      41.07050000      34.00510000
H       30.26740000      42.68940000      35.20940000
H       37.60780000      40.76710000      23.85540000
H       41.74970000      40.16860000      23.47430000
H       30.07230000      40.63830000      34.41980000
H       31.73770000      44.06760000      22.66590000
H       31.11840000      42.98990000      23.60440000
H       34.58330000      43.16780000      24.62180000
H       43.68410000      37.65710000      32.85790000
H       44.89010000      36.77560000      32.31720000
H       38.51060000      43.19800000      24.80570000
H       42.61090000      39.89810000      33.30640000
H       30.39990000      31.58210000      25.83110000
H       32.06660000      32.85420000      28.22340000
H       31.48680000      33.20800000      29.67680000
H       40.83210000      37.20560000      32.08240000
H       41.04530000      36.13430000      33.23520000
H       33.13760000      29.88950000      27.61770000
H       35.27720000      32.33290000      28.69730000
H       35.09520000      31.28980000      27.57140000
H       36.97760000      29.37720000      26.62410000
H       40.32580000      33.18490000      28.52610000
H       38.95420000      32.35790000      28.74180000
H       42.12220000      29.57160000      26.70370000
H       39.68620000      38.80010000      35.60440000
H       43.28810000      32.91930000      27.48060000
H       44.53430000      32.93710000      26.49040000
H       37.97340000      37.45300000      32.37410000
H       38.36590000      38.38800000      33.56390000
H       44.09100000      30.73930000      26.78810000
H       48.90720000      31.05060000      30.01260000
H       48.32840000      32.23390000      29.12250000
H       48.69690000      30.70150000      27.36740000
H       29.04860000      34.20450000      26.97260000
H       35.87330000      38.25340000      36.10660000
H       31.73230000      35.30210000      25.71470000
H       32.97430000      36.17030000      25.57990000
H       32.86220000      33.30940000      26.04210000
H       32.90670000      31.72480000      26.33440000
H       36.21400000      34.38780000      27.36950000
H       35.27530000      34.88370000      28.57550000
H       38.07070000      34.65780000      25.60810000
H       38.45480000      33.68200000      26.79950000
H       40.48650000      37.30660000      27.83410000
H       39.47760000      36.17390000      28.05290000
H       41.74300000      35.63100000      27.13080000
H       42.18930000      34.88470000      25.84290000
H       44.06740000      35.77080000      26.70350000
H       44.95160000      36.96260000      26.24430000
H       45.57770000      34.56710000      25.62620000
H       46.28660000      33.21360000      25.02770000
H       48.49870000      34.46640000      29.64330000
H       47.07560000      33.96820000      29.20160000
H       31.80700000      38.49130000      25.04820000
H       30.99920000      39.69290000      29.08000000
H       30.21930000      38.35880000      28.60370000
H       33.47110000      38.57880000      26.56750000
H       32.03240000      38.39420000      27.21390000
H       35.27120000      39.53410000      27.48740000
H       35.55060000      38.54400000      26.28310000
H       36.12460000      36.48150000      26.75690000
H       36.34020000      36.60490000      25.22440000
H       40.29120000      40.92560000      27.33940000
H       39.23300000      39.71530000      27.23120000
H       40.73880000      39.61370000      25.49030000
H       42.14110000      38.98690000      25.18800000
H       42.50690000      39.23570000      28.22730000
H       42.70130000      40.69130000      27.65170000
H       44.67920000      39.04270000      25.01110000
H       43.85370000      39.10040000      26.40360000
H       30.21950000      40.43530000      27.27550000
H       34.17480000      36.69900000      33.60200000
H       31.70240000      45.17370000      27.88460000
H       31.41530000      45.13610000      29.44820000
H       34.76250000      40.74720000      25.47280000
H       33.41940000      41.42600000      25.01000000
H       34.99970000      42.57470000      28.16590000
H       36.45810000      43.17340000      28.32780000
H       38.36480000      41.32280000      26.01720000
H       36.93700000      41.97630000      26.17100000
H       39.18850000      44.52720000      28.24840000
H       40.39770000      44.90780000      27.23420000
H       44.79170000      41.65920000      24.09270000
H       43.30200000      41.75280000      23.61330000
H       42.71660000      43.11130000      26.85010000
H       43.53360000      43.14520000      25.50170000
H       46.12510000      44.56470000      27.52020000
H       44.62320000      44.15720000      27.32310000
H       34.06450000      37.61770000      34.83850000
H       31.98600000      40.25030000      35.48870000
H       31.68010000      32.57210000      31.81300000
H       30.13620000      32.49700000      31.60370000
H       31.88130000      36.92410000      34.05190000
H       33.98650000      29.91960000      29.88220000
H       35.26880000      31.63830000      30.96700000
H       34.43590000      32.38030000      32.03730000
H       46.13850000      38.05780000      35.51010000
H       37.16440000      31.14570000      28.82400000
H       38.14660000      31.43990000      32.39700000
H       37.82840000      30.61470000      31.13370000
H       40.44070000      29.37570000      28.47460000
H       43.78950000      32.42840000      30.89710000
H       43.16000000      31.02370000      30.77730000
H       46.25570000      32.72820000      32.55900000
H       45.42650000      33.81130000      33.39350000
H       45.71100000      30.50220000      32.04150000
H       47.21650000      30.84640000      31.70400000
H       48.82390000      29.29750000      31.64430000
H       30.20300000      35.86810000      27.57760000
H       43.87500000      35.40220000      33.61250000
H       30.52220000      36.17500000      32.02870000
H       30.44700000      34.73870000      31.35690000
H       34.61470000      33.80470000      30.46360000
H       33.40210000      34.25460000      29.56840000
H       35.11620000      35.53190000      31.56300000
H       36.48230000      35.76690000      32.31400000
H       38.67390000      34.52270000      29.03880000
H       37.41690000      35.42860000      28.79480000
H       39.24370000      35.83250000      32.06700000
H       38.26610000      35.62620000      30.82800000
H       42.16490000      32.75380000      29.73350000
H       42.17080000      34.22880000      29.21670000
H       43.69330000      36.07630000      29.76860000
H       42.63560000      35.99230000      30.91430000
H       45.74950000      32.25480000      30.14520000
H       44.90970000      32.75140000      28.88430000
H       46.54050000      35.11240000      32.10630000
H       46.28860000      36.03390000      30.82770000
H       49.63490000      34.86510000      31.63990000
H       48.46760000      35.84400000      31.34750000
H       29.73230000      36.43310000      29.74380000
H       32.53580000      38.36050000      31.58640000
H       31.47210000      38.50290000      32.74780000
H       34.44350000      37.88460000      30.83710000
H       33.71670000      36.57950000      30.30860000
H       36.39840000      39.04190000      32.13130000
H       35.07470000      39.94950000      32.19500000
H       37.80640000      38.01510000      27.20650000
H       37.46060000      39.04170000      28.34280000
H       40.75110000      39.69030000      31.78120000
H       39.44200000      38.82170000      31.64810000
H       41.99700000      37.37350000      29.37310000
H       41.03500000      38.53150000      29.84070000
H       45.34910000      39.57290000      30.43530000
H       44.59890000      39.62440000      29.02040000
H       45.47450000      37.58870000      29.34710000
H       45.42320000      36.35930000      28.37000000
H       41.08710000      32.88190000      33.89590000
H       31.61790000      40.23600000      31.00720000
H       42.13020000      32.46860000      32.73900000
H       30.99120000      42.43510000      33.07520000
H       32.49180000      42.50290000      32.66540000
H       32.79330000      43.52700000      29.02490000
H       32.61210000      42.05800000      29.61930000
H       35.05120000      44.48100000      31.07700000
H       34.32210000      43.18230000      30.53330000
H       35.88830000      39.77930000      29.94450000
H       36.16030000      40.89720000      28.83420000
H       39.55350000      44.74530000      31.30340000
H       38.51530000      43.56900000      31.53910000
H       40.89090000      42.95780000      28.04830000
H       41.82340000      42.15960000      29.00700000
H       42.27910000      43.46530000      30.65280000
H       43.54090000      42.51020000      30.43410000
H       45.37980000      43.11060000      29.31160000
H       45.50530000      41.58740000      29.65590000
H       40.18190000      34.87600000      34.99410000
H       29.40030000      31.35330000      34.15730000
H       31.28170000      31.83770000      35.27250000
H       36.71280000      32.96280000      32.43100000
H       37.90200000      33.99690000      32.39620000
H       35.15910000      32.46550000      35.19120000
H       35.09610000      34.78480000      35.77540000
H       36.97070000      29.91340000      33.44840000
H       36.16300000      30.52370000      34.69730000
H       35.07740000      35.82700000      36.96580000
H       38.63540000      33.00300000      34.26880000
H       34.98950000      34.51980000      33.55350000
H       33.64270000      34.32430000      34.31390000
H       42.73740000      31.29120000      34.48600000
H       30.31860000      34.78310000      36.10530000
H       44.17290000      29.73710000      33.50720000
H       30.21290000      35.04110000      34.04410000
H       46.86680000      32.88660000      34.70900000
H       48.53550000      31.27840000      34.99200000
H       37.80930000      44.52960000      29.74000000
H       31.74950000      42.11040000      45.26380000
H       31.34530000      43.35110000      46.14900000
H       32.74960000      31.27020000      38.85450000
H       31.34420000      31.94350000      39.15800000
H       29.68660000      42.80080000      44.38330000
H       34.92930000      30.80420000      38.56710000
H       37.71030000      37.64760000      45.05250000
H       35.01160000      30.62900000      40.65710000
H       35.79640000      31.97700000      40.33180000
H       36.81050000      28.21030000      39.30400000
H       39.05750000      37.11280000      44.47010000
H       40.20820000      32.44460000      39.19990000
H       39.30250000      33.10500000      38.08730000
H       40.30490000      31.37960000      37.09150000
H       44.70740000      32.11530000      39.63610000
H       44.56390000      30.55480000      39.81540000
H       33.94960000      39.37890000      45.22520000
H       44.36450000      30.57320000      36.04960000
H       35.10100000      38.31260000      45.60800000
H       30.05030000      34.86070000      38.39820000
H       30.81940000      37.56070000      45.41030000
H       31.19240000      35.86030000      41.63970000
H       30.75090000      34.79520000      40.55670000
H       32.85820000      33.13820000      38.03020000
H       33.86930000      34.05680000      37.15520000
H       32.95790000      35.45110000      40.51910000
H       34.40000000      34.89990000      40.18940000
H       38.43510000      33.92580000      36.29180000
H       36.99170000      34.17950000      36.90430000
H       37.83780000      36.05220000      39.72230000
H       38.10380000      34.81990000      38.81620000
H       42.45130000      35.32710000      37.93780000
H       41.20810000      34.35260000      37.86550000
H       44.71160000      35.26790000      37.85190000
H       44.34630000      34.97420000      39.35770000
H       46.21990000      34.18480000      36.26810000
H       44.92960000      34.77060000      35.59990000
H       31.28270000      36.76730000      36.84230000
H       41.31580000      34.36150000      44.34580000
H       32.64330000      40.50570000      39.48450000
H       31.46840000      41.59970000      39.29090000
H       33.96730000      36.65230000      38.62470000
H       33.37290000      37.36000000      37.36590000
H       34.15770000      38.92730000      38.63780000
H       34.92160000      40.07180000      39.40120000
H       38.05520000      37.57420000      36.20410000
H       37.44680000      36.27710000      36.83470000
H       37.61160000      37.74190000      38.41210000
H       38.64390000      38.03340000      39.64180000
H       42.40470000      38.31440000      36.75220000
H       43.77040000      37.83160000      36.16430000
H       42.88490000      39.07370000      38.64370000
H       41.37120000      38.87740000      39.06150000
H       45.11340000      38.48230000      38.18990000
H       44.35830000      37.36710000      38.92790000
H       41.56250000      32.86850000      44.72140000
H       30.63980000      43.04710000      37.47730000
H       32.73760000      43.26440000      38.31650000
H       34.31950000      43.26070000      38.48290000
H       34.16890000      40.28140000      36.17330000
H       33.58290000      41.66800000      36.66980000
H       35.98250000      42.56090000      39.79110000
H       35.45830000      43.95530000      40.36620000
H       37.07620000      41.23580000      35.68640000
H       36.35280000      41.82510000      34.42940000
H       37.46280000      41.18580000      38.28530000
H       38.66500000      41.02580000      37.25860000
H       40.88130000      40.08930000      37.18320000
H       40.29570000      40.93230000      35.92380000
H       36.79940000      34.23490000      43.93410000
H       29.78450000      31.02390000      42.07360000
H       37.50180000      33.29630000      45.02130000
H       30.62250000      32.20330000      43.72590000
H       31.85440000      31.70040000      42.93810000
H       35.88860000      35.99750000      46.31950000
H       34.33760000      31.78770000      44.86100000
H       34.11720000      32.77880000      43.65840000
H       36.67320000      37.01870000      47.19190000
H       38.34960000      30.13840000      42.73260000
H       39.46520000      31.70700000      43.75700000
H       38.28060000      32.55380000      43.22360000
H       40.23580000      30.68300000      40.48780000
H       34.45680000      34.29130000      47.10080000
H       42.14410000      33.47710000      42.63810000
H       41.72120000      32.69510000      41.30660000
H       34.98760000      33.75170000      45.73770000
H       45.51570000      28.81490000      41.21080000
H       30.55130000      34.25320000      42.86710000
H       32.14770000      35.97200000      45.00590000
H       30.90940000      35.04000000      44.89380000
H       32.52840000      33.51800000      41.80650000
H       33.12810000      32.14550000      41.34720000
H       34.65120000      35.46140000      43.32310000
H       35.86480000      35.98540000      42.53920000
H       36.57620000      34.18240000      40.35200000
H       35.63550000      33.99330000      41.58830000
H       39.07300000      34.92590000      44.12470000
H       39.98150000      35.60220000      43.03850000
H       39.63430000      35.25040000      40.68020000
H       41.08200000      34.90410000      41.22340000
H       45.24900000      33.87270000      41.29860000
H       43.69270000      33.62440000      41.07010000
H       30.31670000      37.91970000      42.49810000
H       30.25050000      33.35310000      47.22360000
H       31.66420000      39.80630000      45.09150000
H       32.48720000      40.63360000      44.01540000
H       32.58990000      37.03140000      43.10530000
H       33.70830000      37.41420000      44.14440000
H       35.36600000      39.02530000      41.94310000
H       35.38450000      39.67700000      43.33810000
H       34.90230000      36.93560000      40.87410000
H       36.33440000      37.55440000      40.60690000
H       39.46480000      40.27390000      42.80190000
H       38.75740000      38.93580000      43.19380000
H       40.45740000      37.30760000      40.61380000
H       39.94140000      38.71720000      41.10900000
H       30.28400000      40.82050000      41.18400000
H       32.94560000      42.89920000      42.68540000
H       32.36520000      43.85970000      43.76190000
H       33.90490000      40.76800000      42.28830000
H       32.55310000      41.09620000      41.51300000
H       36.67920000      40.51030000      40.88990000
H       37.07210000      39.60000000      39.70560000
H       28.33370000      33.80720000      46.49200000
H       30.72690000      29.78550000      44.00870000
H       31.86350000      32.11920000      47.63480000
H       31.26210000      30.66570000      47.81310000
H       39.58340000      31.78440000      45.94060000
H       33.06480000      30.53990000      46.32790000
H       36.83860000      32.62930000      46.93020000
H       36.88200000      29.07700000      45.52960000
H       31.47700000      43.62980000      35.28150000
H       43.09500000      38.95930000      34.51540000
H       39.82660000      37.27200000      35.10160000
H       35.89850000      39.41720000      35.05100000
H       31.21480000      38.93750000      35.81460000
H       45.85860000      36.70960000      36.26540000
H       43.20610000      34.00950000      34.03540000
H       32.58730000      32.46340000      35.93790000
H       41.19130000      35.65800000      35.88040000
H       35.14030000      31.42770000      36.39110000
H       39.53730000      32.21640000      35.35420000
H       42.44810000      29.77420000      34.76370000
H       31.61730000      34.59630000      37.00250000
H       46.43900000      31.93070000      35.89650000
H       33.67380000      44.20870000      36.45980000
H       36.98730000      44.20050000      38.36240000
H       29.94600000      34.65490000      49.23790000
H       33.60980000      30.06370000      50.45210000
H       31.40990000      34.36790000      46.96710000
H       37.34850000      31.21290000      46.42910000
H       30.76140000      44.54930000      18.16150000
H       38.00480000      44.47610000      20.28040000
H       32.92140000      43.14230000      18.38900000
H       33.45580000      41.73000000      18.00700000
H       37.17670000      45.17310000      21.45350000
H       29.54590000      44.96580000      22.85370000
H       34.07550000      44.14110000      21.21810000
H       33.57130000      45.56700000      21.83700000
H       31.82510000      47.41920000      23.42210000
H       30.34390000      46.85350000      23.43520000
H       31.85530000      47.92690000      34.44670000
H       38.64960000      45.05430000      34.65470000
H       33.72890000      48.04930000      21.78020000
H       34.35740000      47.57210000      23.13140000
H       30.76170000      44.15650000      25.97860000
H       38.95720000      44.65680000      36.11830000
H       31.83190000      49.14560000      26.79470000
H       33.31940000      48.44640000      27.07410000
H       32.93540000      44.73240000      25.27590000
H       31.81440000      45.82200000      25.07350000
H       36.21190000      46.92090000      24.07320000
H       35.14830000      47.41220000      25.14130000
H       37.64960000      44.90540000      23.74260000
H       36.07590000      44.82810000      23.74030000
H       40.24950000      44.81190000      25.12520000
H       41.72810000      44.85360000      25.69620000
H       30.56930000      48.34570000      25.35320000
H       31.10360000      44.33170000      31.79140000
H       36.46960000      44.77400000      33.58550000
H       31.99570000      46.41390000      31.49810000
H       32.38780000      47.67610000      32.37700000
H       34.75230000      46.87600000      27.39850000
H       33.51690000      46.41610000      26.50170000
H       36.56070000      47.48040000      28.22520000
H       35.77960000      46.83590000      29.52460000
H       37.04580000      45.35340000      28.62860000
H       37.63590000      45.33070000      32.70510000
H       40.90080000      44.92170000      29.57690000
H       41.66740000      45.87180000      30.57950000
H       36.47030000      46.20740000      35.22130000
H       36.88330000      48.33620000      25.85170000
H       38.25230000      48.47090000      26.56780000
H       29.93640000      46.22420000      35.17630000
H       35.68310000      46.38190000      31.97350000
H       32.42070000      45.93390000      35.66130000
H       34.23650000      46.67710000      31.36770000
H       35.69300000      45.26570000      42.29730000
H       30.44360000      45.23040000      38.26690000
H       34.25050000      44.64160000      42.24460000
H       34.54090000      45.33960000      35.80760000
H       30.99020000      44.08240000      40.28750000
H       37.71420000      43.24330000      37.41190000
H       36.60320000      45.45100000      36.58220000
H       31.50540000      46.67370000      36.70230000
H       32.14580000      48.17610000      30.27170000
H       32.37190000      49.01860000      28.38310000
H       30.88740000      48.34030000      29.30070000
