# LAMMPS data file written by OVITO Basic 3.5.2
1378 atoms
2 atom types
0.0 50.0 xlo xhi
0.0 50.0 ylo yhi
0.0 50.0 zlo zhi

Atoms  # atomic

1 1 23.4425 12.0488 21.7689
2 1 25.287 11.7253 27.6238
3 1 22.1919 21.5647 11.2166
4 1 22.1588 14.4498 16.4583
5 1 19.3879 19.7292 15.385
6 1 21.7688 17.8919 15.317
7 1 22.847 20.4621 15.0811
8 1 16.0242 22.6514 15.0422
9 1 17.2735 24.1481 13.1696
10 1 19.9751 23.7854 13.54
11 1 20.7364 21.171 13.5261
12 1 23.9601 23.7031 14.2582
13 1 18.8704 16.9919 18.5079
14 1 19.1141 14.1738 19.268
15 1 23.0275 15.5299 19.6405
16 1 15.3723 19.5586 19.7715
17 1 16.3634 18.2469 17.6109
18 1 19.7871 19.8843 20.6464
19 1 21.4822 17.129 17.9976
20 1 22.6419 19.5415 18.8637
21 1 13.5103 24.0173 15.1113
22 1 13.8133 24.0607 17.7674
23 1 16.7447 19.8938 15.3237
24 1 17.173 23.6459 19.8234
25 1 20.1779 20.4989 17.9724
26 1 21.2445 23.0319 18.0001
27 1 24.003 15.9624 15.0132
28 1 16.723 17.1882 22.55
29 1 17.6842 14.874 21.6431
30 1 20.1395 15.2202 23.1041
31 1 21.3096 13.781 20.9455
32 1 22.9578 15.0721 23.9719
33 1 14.1475 18.128 21.7304
34 1 13.8506 20.0225 23.8511
35 1 17.3177 19.7918 21.6243
36 1 16.2095 21.4802 23.4997
37 1 20.6816 17.7034 22.2481
38 1 23.2538 18.9545 22.5987
39 1 10.8452 23.0301 23.4416
40 1 12.9113 22.1932 21.9978
41 1 14.9273 23.7922 22.8475
42 1 14.5615 22.2248 19.7096
43 1 20.0111 23.9469 23.0322
44 1 21.8989 21.24 21.9622
45 1 24.0529 23.0484 21.8034
46 1 16.1842 16.2037 25.2285
47 1 18.9163 15.3228 25.6119
48 1 20.1973 17.0692 27.2327
49 1 23.3696 13.4093 26.1251
50 1 23.6926 17.1968 27.6229
51 1 14.6072 18.2463 26.1221
52 1 15.8469 20.2716 27.5069
53 1 18.2438 18.6167 24.7358
54 1 20.8563 19.2073 25.1658
55 1 23.1086 17.5449 24.9879
56 1 25.7822 20.232 25.8747
57 1 12.5622 23.2581 27.7691
58 1 11.8691 21.5168 25.526
59 1 16.0833 24.6724 26.2373
60 1 17.0249 22.1454 26.0325
61 1 19.5217 22.403 26.7945
62 1 21.0519 21.8501 24.6863
63 1 22.8672 23.1213 26.3083
64 1 19.5509 13.7937 28.0413
65 1 22.074 14.9532 28.1786
66 1 14.8945 17.2431 28.7064
67 1 17.5703 17.9953 27.5161
68 1 22.6905 19.3531 28.8826
69 1 14.2696 21.6762 29.2796
70 1 16.6681 21.1817 30.5986
71 1 20.3331 20.0465 27.8531
72 1 19.9607 24.0541 20.2041
73 1 12.9071 26.0134 27.9493
74 1 16.7714 25.3058 28.8107
75 1 25.0202 20.56 20.2456
76 1 25.7346 21.9992 23.7661
77 1 24.3269 25.336 25.9138
78 1 18.9704 14.6961 30.4605
79 1 23.5496 14.8261 30.4947
80 1 15.293 18.7401 31.1265
81 1 18.7856 19.6521 30.0178
82 1 22.8088 19.4295 31.54
83 1 17.152 22.9352 32.5921
84 1 21.26 23.2808 31.2795
85 1 24.9787 23.0099 29.5564
86 1 21.323 13.8634 32.0066
87 1 22.4599 14.9943 34.1454
88 1 17.9254 17.2536 31.0499
89 1 18.9955 17.684 33.4593
90 1 21.7625 17.6299 33.6059
91 1 21.732 18.1858 36.3514
92 1 13.4048 20.6212 31.8533
93 1 14.6045 22.4222 33.8666
94 1 18.4109 20.5021 34.0053
95 1 18.3278 21.4188 36.5189
96 1 20.3878 20.7163 31.9671
97 1 24.7686 22.6432 34.0314
98 1 21.5363 15.3974 36.6795
99 1 15.8307 20.6356 35.6731
100 1 20.5547 20.4062 37.5984
101 1 22.8951 22.2759 37.7102
102 1 13.2443 26.315 30.7462
103 1 22.4884 24.1093 33.6478
104 1 18.7865 24.178 36.5107
105 1 25.1714 14.2657 34.3314
106 1 24.6556 17.1664 31.6612
107 1 24.7176 20.9912 36.3267
108 1 22.78 26.4829 11.5848
109 1 15.7975 28.0134 16.0495
110 1 17.3123 26.9108 13.8623
111 1 18.9967 28.9616 14.0443
112 1 21.1364 24.3667 11.0503
113 1 21.0315 34.129 17.0563
114 1 21.7369 26.9833 15.9548
115 1 16.1001 30.2454 14.471
116 1 19.7361 31.6991 14.0142
117 1 21.725 28.238 13.5389
118 1 23.228 30.3626 14.5232
119 1 22.0225 33.2335 13.0418
120 1 22.95 34.9067 15.1653
121 1 13.2572 26.971 15.4478
122 1 13.969 27.5694 20.0531
123 1 16.5806 24.1861 17.2223
124 1 18.0561 26.463 18.335
125 1 21.5805 24.3691 15.6133
126 1 21.7771 34.1249 19.6634
127 1 21.5402 26.3342 20.2376
128 1 13.5994 29.2422 13.6763
129 1 16.2125 30.452 20.3518
130 1 16.1439 28.3015 18.6886
131 1 19.6275 29.5909 18.9263
132 1 19.3893 28.262 16.6295
133 1 23.0392 30.4859 18.1345
134 1 17.4951 32.8435 14.8951
135 1 18.0954 33.9712 17.2798
136 1 21.3539 31.5894 16.2165
137 1 26.4067 28.4495 11.8601
138 1 24.6329 30.8678 12.0639
139 1 22.8287 27.8184 18.2184
140 1 11.2193 25.7815 24.335
141 1 12.4261 26.4587 18.1854
142 1 14.3708 28.3371 24.3935
143 1 15.7943 25.7145 21.1207
144 1 17.582 27.1826 22.5084
145 1 22.2853 37.838 27.9245
146 1 23.9732 26.8982 23.6628
147 1 13.9028 29.6866 21.8755
148 1 16.6521 31.1487 24.9213
149 1 17.3486 29.8574 22.7082
150 1 19.9935 30.3859 22.9099
151 1 19.8666 28.2107 21.3322
152 1 23.4767 31.5392 22.6301
153 1 13.6134 32.3144 22.7035
154 1 15.6835 34.3637 22.1427
155 1 17.1677 33.1098 19.9144
156 1 19.0382 34.3161 21.7349
157 1 20.4291 31.82 20.2968
158 1 23.6466 34.7334 22.5808
159 1 17.5684 36.6121 21.8225
160 1 21.0828 36.33 21.0341
161 1 10.889 27.4324 26.5388
162 1 14.0306 25.5988 24.6625
163 1 19.9362 36.3551 27.3676
164 1 15.4532 27.5617 28.1033
165 1 18.0716 25.3735 24.4715
166 1 19.7283 27.003 25.9698
167 1 21.365 26.3564 23.7651
168 1 23.3643 27.2317 27.6332
169 1 12.6627 29.4429 26.3099
170 1 14.9192 32.077 28.1904
171 1 16.8687 28.2594 25.8458
172 1 17.5342 31.5668 27.5682
173 1 19.5777 29.6465 25.5827
174 1 21.5791 31.1155 27.1596
175 1 13.9911 31.8792 25.5373
176 1 17.1756 35.9543 26.1518
177 1 17.6464 33.6067 24.0723
178 1 19.5611 33.9705 25.9385
179 1 21.4438 32.3432 24.4605
180 1 23.3513 35.4696 27.083
181 1 19.2432 36.845 24.3235
182 1 21.9852 35.991 24.5384
183 1 22.5008 33.3291 28.7178
184 1 17.7917 34.3173 28.3391
185 1 21.2081 23.8531 28.4159
186 1 13.9343 29.6114 29.0361
187 1 17.8616 29.3029 29.2243
188 1 21.1916 28.9855 28.7978
189 1 15.8375 33.3949 30.3496
190 1 24.025 25.6519 21.203
191 1 24.0424 32.4497 20.0717
192 1 24.8061 36.2802 20.8316
193 1 24.5896 29.5332 24.1071
194 1 15.8071 25.6128 31.3256
195 1 19.169 26.677 28.6938
196 1 23.807 25.5566 29.8124
197 1 17.3848 31.1867 31.2842
198 1 20.2888 28.2423 31.4961
199 1 23.4047 29.5439 30.2184
200 1 20.3073 34.5739 29.7663
201 1 24.6214 32.8631 30.4688
202 1 14.065 27.6161 34.3493
203 1 15.0224 25.2181 33.9889
204 1 21.7709 32.0584 35.912
205 1 18.4554 26.5573 34.9743
206 1 23.3155 26.7398 34.1228
207 1 13.3005 28.9781 31.93
208 1 17.7078 27.425 32.3604
209 1 17.6461 29.9149 33.6596
210 1 21.1534 25.955 30.5318
211 1 20.3433 30.1971 34.2656
212 1 19.6891 32.5707 31.4301
213 1 21.8967 31.0115 31.9665
214 1 21.5085 33.4811 33.4515
215 1 21.8344 36.851 30.479
216 1 20.9893 27.6985 35.2054
217 1 21.4627 24.1167 36.1942
218 1 21.9704 26.5269 37.51
219 1 16.3136 28.465 35.6974
220 1 24.3393 31.5803 35.2544
221 1 24.6363 28.1884 32.2305
222 1 24.8926 30.9113 32.5838
223 1 25.197 24.3435 37.6687
224 1 22.8899 37.8626 22.5955
225 1 24.0591 39.0916 26.1224
226 1 27.3904 11.5883 20.8106
227 1 27.2313 11.8012 25.7333
228 1 26.9774 24.0828 11.4492
229 1 25.9518 14.0079 15.6936
230 1 27.661 18.3709 14.9508
231 1 29.553 17.1192 13.2909
232 1 31.3141 18.3234 15.1614
233 1 24.4499 21.3956 13.0671
234 1 36.2168 21.2675 19.1599
235 1 27.0202 20.9435 13.7789
236 1 30.1223 20.7339 14.8377
237 1 31.1161 23.4909 14.5073
238 1 33.6923 21.7655 15.6343
239 1 35.792 23.1546 16.9632
240 1 23.9759 12.7141 17.4169
241 1 25.7307 16.1682 18.6363
242 1 28.0347 14.8156 17.8459
243 1 30.2743 17.0136 19.4161
244 1 25.4464 17.8373 16.5168
245 1 35.8139 23.2004 21.0706
246 1 25.7548 20.2968 17.6673
247 1 29.4739 17.1123 16.7834
248 1 30.2428 21.2935 18.558
249 1 33.8415 19.0335 16.3287
250 1 34.1917 19.218 18.9967
251 1 23.7654 22.1401 17.139
252 1 27.5421 23.5603 18.1877
253 1 27.8555 21.551 16.3636
254 1 31.7965 24.0458 20.0746
255 1 31.6213 23.1311 17.1479
256 1 25.0817 25.8636 12.6364
257 1 28.8182 24.8559 13.4677
258 1 34.3898 24.346 18.9712
259 1 25.1928 12.8202 19.9446
260 1 26.1126 14.8338 21.6434
261 1 29.2835 13.7495 20.5472
262 1 29.2609 14.9339 23.2279
263 1 31.8556 14.85 19.8777
264 1 33.8127 15.5957 22.0082
265 1 24.6507 17.145 21.2494
266 1 37.243 22.3192 29.0429
267 1 26.7167 19.959 22.3504
268 1 27.7552 16.9291 20.6803
269 1 30.5139 19.8429 22.3201
270 1 31.664 19.2731 19.8781
271 1 35.9527 19.1661 23.1333
272 1 35.3947 17.5004 20.9087
273 1 26.7967 22.7307 20.6129
274 1 29.3279 21.976 21.0885
275 1 29.9191 24.4123 22.406
276 1 34.7747 21.646 23.1525
277 1 36.4716 23.1432 24.8691
278 1 38.6742 20.1057 23.5497
279 1 39.6942 22.9633 23.2089
280 1 26.0159 12.5531 23.2053
281 1 33.888 21.3318 27.8425
282 1 27.8343 14.9072 28.5527
283 1 28.5837 14.2601 25.8834
284 1 30.8057 15.7909 26.4738
285 1 31.9152 15.2228 24.026
286 1 34.7226 15.6964 26.7829
287 1 26.1904 17.9667 24.3838
288 1 28.2692 20.1963 26.8164
289 1 28.8326 17.7051 23.107
290 1 32.3673 19.6419 26.2647
291 1 34.5808 18.1889 25.4277
292 1 36.0224 19.6251 27.2932
293 1 34.5632 14.1342 24.488
294 1 28.7591 20.9002 29.3301
295 1 27.5436 23.6428 25.141
296 1 29.7035 22.0954 25.6786
297 1 31.8579 23.1819 27.1006
298 1 32.0993 21.2577 24.0556
299 1 37.5239 24.321 27.1408
300 1 37.887 20.9788 25.9551
301 1 40.0675 21.7622 27.5914
302 1 25.8128 13.3301 29.7362
303 1 24.1653 21.2512 27.7187
304 1 30.1784 14.3357 29.8701
305 1 32.5043 15.4861 28.6559
306 1 26.1694 16.9913 29.0975
307 1 30.162 18.3134 27.2031
308 1 32.5377 17.4312 30.7519
309 1 36.3872 17.0788 28.4994
310 1 27.0147 24.8031 22.498
311 1 31.9854 23.9063 24.3505
312 1 32.3828 24.7874 29.2878
313 1 26.5083 12.9781 32.4842
314 1 30.3896 15.8735 32.0821
315 1 27.3777 20.3783 31.6039
316 1 30.2551 18.7406 29.9704
317 1 33.5818 19.3986 32.3515
318 1 28.7668 23.2334 30.4874
319 1 31.1384 23.5097 31.7077
320 1 34.6359 23.1184 29.7909
321 1 25.7473 16.9837 34.3517
322 1 29.3456 13.1867 32.612
323 1 28.6118 20.6024 36.0217
324 1 28.5294 17.952 32.1243
325 1 31.5171 19.7093 34.1628
326 1 30.917 16.9125 34.6465
327 1 24.8654 21.304 31.6944
328 1 32.7062 21.3298 36.2432
329 1 26.8275 22.0933 37.5782
330 1 29.1947 21.2881 33.4408
331 1 30.0704 24.7999 36.1145
332 1 33.4969 22.1772 32.0454
333 1 34.6166 22.6296 34.5511
334 1 35.7112 20.1126 33.9488
335 1 24.5549 18.2643 36.3788
336 1 28.2928 18.0162 34.9297
337 1 30.483 22.3344 37.3074
338 1 28.8526 22.6514 39.4408
339 1 26.5586 24.7138 33.492
340 1 29.1758 24.1551 33.6341
341 1 36.3028 25.0456 34.394
342 1 28.1424 26.3965 37.1944
343 1 28.8831 27.5751 12.8274
344 1 28.4637 34.0642 16.2912
345 1 26.6194 25.7275 14.9472
346 1 25.7408 33.6706 15.8306
347 1 30.4475 26.8175 16.7709
348 1 32.2951 26.2067 14.8425
349 1 34.8504 27.2727 15.3863
350 1 33.3483 32.5246 17.6256
351 1 27.4563 30.3437 15.3571
352 1 28.107 27.784 15.8513
353 1 31.8419 30.4713 16.4838
354 1 32.6781 29.0444 14.2372
355 1 26.6142 32.3591 13.5022
356 1 28.5536 34.3374 13.5399
357 1 25.3505 24.5127 17.0113
358 1 31.3602 33.8532 19.2675
359 1 25.1081 26.4896 18.8507
360 1 29.6176 25.1637 18.6622
361 1 29.2386 26.7201 20.9037
362 1 29.341 31.488 16.9095
363 1 34.0249 27.0945 19.3102
364 1 36.8993 25.3229 15.5143
365 1 25.8228 34.2938 19.0408
366 1 25.3011 29.315 20.6735
367 1 27.0902 28.4066 18.4777
368 1 28.6741 30.5102 19.4382
369 1 31.9267 28.5284 18.3607
370 1 34.7786 30.6704 18.9116
371 1 35.9243 28.2972 17.7879
372 1 25.0852 31.0064 16.4732
373 1 32.1536 36.3079 26.3677
374 1 27.2187 27.7706 24.6298
375 1 31.6541 27.0359 23.8767
376 1 32.7528 26.0327 21.546
377 1 29.1595 35.7841 30.2041
378 1 34.3148 24.8433 23.4547
379 1 37.4818 24.6514 22.8176
380 1 25.7331 36.2653 28.3933
381 1 36.1513 26.9868 23.8737
382 1 22.5779 29.4813 20.991
383 1 26.7727 31.1837 23.8979
384 1 26.8092 27.4571 21.9204
385 1 30.7481 29.562 23.3609
386 1 30.5981 29.0091 20.6746
387 1 36.4145 31.8241 23.2335
388 1 35.5898 29.346 22.4817
389 1 27.2859 34.509 21.8792
390 1 28.3803 31.9665 21.8234
391 1 29.9732 33.0876 23.9164
392 1 33.0387 33.1166 21.3878
393 1 33.1738 35.5885 22.5351
394 1 35.6073 32.7712 20.6383
395 1 35.7411 33.2054 29.201
396 1 28.6864 34.8781 18.841
397 1 31.3376 36.4896 20.1744
398 1 32.1945 32.8558 28.2209
399 1 26.4074 27.4652 27.2094
400 1 29.1198 25.9374 24.8983
401 1 30.0192 26.4617 27.356
402 1 28.9335 32.0856 30.1442
403 1 34.5372 27.5255 27.9202
404 1 40.0424 23.8492 25.725
405 1 38.1895 28.3865 29.7388
406 1 25.5308 30.7203 28.9659
407 1 28.0492 31.3613 27.5245
408 1 28.7555 29.9241 25.3114
409 1 31.3221 30.7991 26.8733
410 1 32.542 26.1932 26.519
411 1 33.9258 30.8923 25.6914
412 1 35.897 28.9296 25.9639
413 1 25.7605 33.7204 24.0416
414 1 26.7114 35.3629 26.0141
415 1 28.8115 33.6788 26.2867
416 1 30.5243 34.9074 27.9876
417 1 32.3311 31.7491 23.6011
418 1 34.1587 34.1848 26.9251
419 1 35.0958 34.3443 24.2003
420 1 25.4721 37.2792 24.44
421 1 36.7397 30.4914 28.2892
422 1 28.8302 36.683 21.9188
423 1 30.7402 35.8126 23.9021
424 1 26.4095 24.2906 27.504
425 1 28.1356 25.6138 29.2603
426 1 34.5174 29.5484 29.9244
427 1 36.7482 26.1913 28.9193
428 1 30.1824 28.9221 28.5737
429 1 23.9222 29.784 26.7748
430 1 26.1368 26.1441 31.1829
431 1 31.5385 27.2929 30.2234
432 1 36.0907 25.5337 31.6183
433 1 27.5063 28.736 29.4916
434 1 30.7192 30.4995 31.3812
435 1 33.5666 32.0677 30.454
436 1 26.5024 35.0579 30.6793
437 1 29.8504 34.6252 32.6624
438 1 29.7218 30.6241 35.4064
439 1 25.8474 26.3181 35.6895
440 1 30.2318 26.5977 32.7265
441 1 33.4014 25.5472 32.5141
442 1 36.134 28.0241 34.5508
443 1 33.4502 28.735 35.4454
444 1 27.4188 30.2954 33.6829
445 1 28.7331 28.6984 31.9832
446 1 32.0476 30.6729 34.0872
447 1 32.9803 28.3629 32.3666
448 1 36.1932 28.356 31.8828
449 1 28.358 29.0182 37.3363
450 1 26.0343 29.2947 35.8161
451 1 25.5889 33.9334 34.3721
452 1 27.6673 32.9179 32.6987
453 1 32.414 33.142 32.857
454 1 23.5877 35.1513 32.4989
455 1 27.2954 36.1631 33.0745
456 1 32.0045 26.3492 34.9254
457 1 27.3982 25.1768 39.46
458 1 27.6423 38.0775 29.4016
459 1 26.3049 37.7224 22.0782
460 2 23.9197 12.3371 22.5732
461 2 22.6318 12.6042 21.6784
462 2 25.4625 12.2776 28.4489
463 2 24.8655 10.9082 27.942
464 2 21.5651 21.3038 11.9441
465 2 21.9672 21.0055 10.4526
466 2 22.7624 15.0224 15.9114
467 2 21.6969 15.0808 17.0399
468 2 19.7267 18.8236 15.2575
469 2 18.3789 19.7307 15.3311
470 2 22.3131 17.2067 14.879
471 2 21.6854 17.5725 16.2537
472 2 23.5374 20.5242 14.3714
473 2 22.5829 19.5092 15.1764
474 2 16.3394 23.128 15.8667
475 2 15.0878 22.9582 14.9668
476 2 16.953 23.9362 12.2768
477 2 16.7729 23.5487 13.8026
478 2 20.1456 22.8023 13.5469
479 2 18.9956 23.9023 13.4445
480 2 21.5476 21.043 14.0987
481 2 20.0842 20.6075 14.0283
482 2 24.2144 24.4992 13.7421
483 2 23.1193 23.9319 14.725
484 2 18.7215 16.045 18.7104
485 2 18.0273 17.3799 18.1826
486 2 18.9435 13.3882 18.7226
487 2 19.928 13.955 19.8026
488 2 22.4611 16.0665 19.0225
489 2 23.8756 15.3868 19.1672
490 2 16.1638 19.7135 20.3749
491 2 15.0211 20.4757 19.6141
492 2 15.6924 17.5896 17.3556
493 2 15.9699 18.7337 18.3957
494 2 19.8036 20.0305 19.6679
495 2 20.4716 20.4929 21.0181
496 2 20.499 17.1596 18.1959
497 2 21.8786 17.9598 18.3727
498 2 23.3204 19.7722 18.2007
499 2 21.8208 20.002 18.5421
500 2 13.5133 23.9328 16.11
501 2 12.7033 23.5607 14.8143
502 2 13.9244 23.3846 18.486
503 2 13.2746 24.8132 18.111
504 2 16.4478 19.4556 16.1533
505 2 16.3973 20.816 15.3014
506 2 18.1541 23.7623 19.9225
507 2 16.7988 24.4921 20.1744
508 2 20.3956 21.4621 17.8726
509 2 19.8585 20.194 17.0842
510 2 22.1884 22.7606 18.0739
511 2 20.9132 23.3771 18.8734
512 2 17.2623 25.9565 13.638
513 2 21.6138 23.5203 10.921
514 2 20.6689 24.2301 11.9129
515 2 13.3553 26.0365 15.1517
516 2 16.8769 23.7968 18.0931
517 2 21.358 23.9208 16.471
518 2 23.9229 21.3674 12.2404
519 2 24.2673 22.3126 13.4482
520 2 23.2377 13.3439 17.1485
521 2 26.2518 17.8966 15.9347
522 2 23.3716 21.6689 16.3653
523 2 17.0777 16.3693 22.086
524 2 15.798 17.3213 22.2377
525 2 17.9665 14.6054 20.7404
526 2 18.5258 14.8544 22.1582
527 2 20.2733 16.1795 22.8422
528 2 19.7292 15.2111 24.011
529 2 20.9358 14.2503 21.7289
530 2 21.9658 14.4025 20.5336
531 2 22.0243 14.9139 23.7097
532 2 23.1633 14.3977 24.6721
533 2 14.4849 18.6546 20.9449
534 2 13.4015 17.5992 21.3961
535 2 14.7265 20.4946 23.7804
536 2 13.87 19.3296 23.1463
537 2 17.2859 18.8598 21.9548
538 2 18.2506 19.9058 21.2671
539 2 16.7767 20.9216 22.9057
540 2 16.6797 21.6061 24.3667
541 2 20.2664 18.2984 21.5808
542 2 21.5841 18.0784 22.3837
543 2 23.8454 18.3398 22.0714
544 2 23.3652 18.6376 23.5272
545 2 10.8528 23.9574 23.7599
546 2 11.0948 22.4862 24.237
547 2 13.0819 21.3952 22.5465
548 2 12.0671 22.5783 22.4071
549 2 15.5643 23.0669 23.0959
550 2 14.1287 23.2654 22.5518
551 2 15.415 22.6309 19.9876
552 2 13.957 22.2435 20.497
553 2 19.1976 24.2777 23.4888
554 2 20.3066 23.1578 23.5388
555 2 22.4158 20.4132 22.184
556 2 21.5237 21.5207 22.8251
557 2 24.6233 22.753 22.5575
558 2 23.2406 22.4889 21.8527
559 2 16.2541 16.3368 24.257
560 2 17.0834 15.8754 25.4705
561 2 19.3976 16.0439 26.115
562 2 18.995 14.5656 26.2313
563 2 20.6811 16.5197 27.8798
564 2 19.4033 17.453 27.6693
565 2 24.0471 12.8076 26.4959
566 2 22.9867 13.8935 26.8923
567 2 23.1115 16.4089 27.7485
568 2 23.6194 17.3851 26.6447
569 2 15.2212 17.55 25.7561
570 2 14.1974 18.702 25.3531
571 2 15.1702 20.6455 28.1238
572 2 15.3734 19.5925 26.9574
573 2 17.8997 18.3168 25.606
574 2 17.7867 18.0632 24.072
575 2 19.9793 18.8899 24.8087
576 2 20.6875 19.2296 26.1388
577 2 22.9768 16.6169 24.6165
578 2 22.208 17.9535 25.0669
579 2 25.1685 20.5429 26.6033
580 2 25.6658 20.8946 25.139
581 2 11.6559 23.1873 28.1194
582 2 12.7487 24.2348 27.7578
583 2 12.2975 22.0704 26.2127
584 2 12.5615 20.9711 25.1006
585 2 15.2063 25.0043 25.9227
586 2 16.1903 24.903 27.1956
587 2 16.5539 21.4729 26.6119
588 2 16.5256 22.9994 26.1278
589 2 18.5339 22.4303 26.6013
590 2 19.8036 23.134 27.3896
591 2 21.0303 20.8497 24.7942
592 2 20.4018 22.1301 25.4005
593 2 23.3741 22.3787 26.7494
594 2 22.3184 22.6763 25.6105
595 2 19.2342 14.1378 28.9371
596 2 19.4641 12.8262 28.0827
597 2 21.2164 14.4483 28.1644
598 2 22.4951 14.8482 29.0737
599 2 14.5217 17.5791 27.856
600 2 14.5709 16.3301 28.8018
601 2 16.8647 17.3886 27.8208
602 2 17.2545 18.88 27.8066
603 2 21.7866 19.5829 28.5002
604 2 22.9962 18.5121 28.4269
605 2 13.8044 21.3902 30.0973
606 2 13.6721 22.3144 28.8134
607 2 16.8812 21.8367 31.3281
608 2 15.9972 21.6288 30.0368
609 2 20.0811 20.9505 27.5242
610 2 19.6747 19.843 28.5703
611 2 11.4851 26.5204 18.427
612 2 15.399 25.0424 21.739
613 2 20.0275 23.8413 21.1672
614 2 14.344 24.9348 23.984
615 2 13.0452 25.5319 24.6608
616 2 18.7091 25.871 25.0435
617 2 21.0242 25.481 23.4653
618 2 13.7351 26.5014 27.7352
619 2 17.6863 25.6862 28.866
620 2 21.8508 23.6303 27.6878
621 2 24.4834 12.4912 20.583
622 2 24.7771 12.8289 19.0483
623 2 23.9169 16.6951 20.7631
624 2 24.0572 20.396 20.2331
625 2 26.374 12.3522 24.0988
626 2 25.4203 17.3739 24.3253
627 2 26.1994 21.3402 23.163
628 2 23.6239 20.5448 28.1805
629 2 25.0328 13.9104 29.9411
630 2 25.3683 17.0498 28.524
631 2 24.0518 24.6837 21.4549
632 2 23.773 24.5047 25.9347
633 2 19.6925 14.5377 31.1072
634 2 18.5474 15.5618 30.6821
635 2 23.8582 15.6533 30.9486
636 2 22.9007 14.4005 31.1054
637 2 15.0413 18.3418 30.2593
638 2 15.834 19.5419 30.9097
639 2 17.9897 20.2493 30.1208
640 2 18.4679 18.7415 30.2683
641 2 22.7262 19.3391 30.5369
642 2 21.9649 19.8924 31.8034
643 2 16.3043 22.8628 33.0973
644 2 17.8058 22.473 33.1518
645 2 20.8502 22.4106 31.5172
646 2 21.3711 23.2747 30.3018
647 2 24.9441 22.4646 30.3897
648 2 24.4136 23.8092 29.6997
649 2 21.6332 14.2285 32.8897
650 2 21.2202 12.9053 32.1427
651 2 23.4029 14.6956 34.2157
652 2 22.0931 15.0015 35.0739
653 2 18.3074 17.4044 31.973
654 2 16.9679 17.4403 31.1575
655 2 19.9831 17.6012 33.4538
656 2 18.8357 18.5954 33.7865
657 2 22.1379 16.7134 33.6559
658 2 22.2075 18.1023 32.8692
659 2 22.7127 18.2365 36.4675
660 2 21.6379 18.16 35.3651
661 2 12.53 20.2615 32.0804
662 2 13.9946 19.8291 31.7116
663 2 14.1336 21.8626 33.2106
664 2 14.902 21.8133 34.5833
665 2 17.4507 20.3238 33.9571
666 2 18.5246 20.84 34.9462
667 2 19.1259 21.0271 36.9904
668 2 18.447 22.4029 36.5415
669 2 19.7893 20.6685 32.7501
670 2 19.8441 20.3053 31.2341
671 2 23.8881 23.1096 33.9945
672 2 24.7581 22.0563 34.83
673 2 20.6882 15.0923 37.0425
674 2 21.4897 16.3894 36.6809
675 2 16.6315 20.9068 36.1924
676 2 15.3612 19.9903 36.2268
677 2 21.2868 21.0562 37.6197
678 2 20.93 19.6077 37.1453
679 2 23.5677 21.6924 37.219
680 2 23.027 22.1247 38.6645
681 2 13.0078 26.2501 29.7916
682 2 14.642 24.3176 34.0993
683 2 22.0663 23.8827 32.7805
684 2 21.9069 23.3754 36.6692
685 2 21.7286 24.053 35.2335
686 2 24.7891 21.7405 32.593
687 2 24.1191 20.6465 31.6502
688 2 24.9549 17.9112 37.1931
689 2 25.5408 21.2033 36.843
690 2 25.9354 23.9531 33.629
691 2 24.3205 23.9128 37.6116
692 2 22.3018 27.1099 12.1759
693 2 22.155 25.7413 11.3527
694 2 15.8618 28.8853 15.5733
695 2 14.8887 27.6662 15.8662
696 2 21.683 34.557 16.4433
697 2 16.7957 27.0516 14.6872
698 2 19.0913 28.8357 15.0339
699 2 18.4722 28.1524 13.7829
700 2 21.3844 34.2237 17.9819
701 2 21.835 27.3751 15.043
702 2 21.6718 25.9868 15.8269
703 2 16.8922 29.9025 14.0085
704 2 15.3039 30.0234 13.9316
705 2 19.441 30.7841 13.8144
706 2 18.9058 32.1971 14.3022
707 2 22.2858 29.0146 13.7981
708 2 20.783 28.5378 13.5852
709 2 24.0148 30.4262 15.126
710 2 22.5824 30.9478 14.9976
711 2 22.6524 32.6289 12.6074
712 2 21.2449 32.6799 13.2944
713 2 23.8595 34.6323 15.398
714 2 22.6849 34.3384 14.4001
715 2 12.8551 26.906 16.3468
716 2 21.6538 34.9749 20.1753
717 2 14.7503 27.8986 19.505
718 2 13.7646 28.3269 20.6589
719 2 22.6655 33.7495 19.8678
720 2 15.6265 24.3744 17.3978
721 2 17.5894 25.7535 17.8385
722 2 18.5225 26.9946 17.6389
723 2 20.8491 24.189 14.957
724 2 21.8369 26.8818 19.4674
725 2 22.3969 26.0683 20.6692
726 2 13.3483 28.4566 14.2114
727 2 13.0232 29.2264 12.8953
728 2 15.3194 30.2865 20.7375
729 2 16.313 29.7549 19.643
730 2 16.8885 27.6287 18.7452
731 2 15.9845 28.3192 17.6985
732 2 19.634 29.043 19.7501
733 2 19.8629 30.5002 19.2307
734 2 20.2515 27.7991 16.4585
735 2 19.5378 28.8647 17.4159
736 2 22.9699 29.4843 18.1887
737 2 22.312 30.772 17.5248
738 2 17.625 33.1992 15.82
739 2 16.855 32.1062 14.9424
740 2 19.0728 34.0749 17.2778
741 2 17.8188 33.6665 18.1719
742 2 20.6414 31.529 15.5231
743 2 21.2537 32.5299 16.5522
744 2 24.1949 26.0758 12.1823
745 2 26.6858 33.8919 16.0613
746 2 25.8291 27.6933 12.0959
747 2 24.0929 30.6873 12.8673
748 2 24.7108 23.7771 16.8533
749 2 22.5232 27.4925 17.322
750 2 24.3973 30.833 17.1795
751 2 10.9344 26.3302 25.1089
752 2 11.1236 26.3609 23.5577
753 2 12.9295 26.9501 18.9102
754 2 22.6871 36.9647 27.6558
755 2 15.3082 28.4287 24.6809
756 2 14.2307 27.3489 24.3687
757 2 22.2063 37.7156 28.9059
758 2 15.0601 26.2877 20.7851
759 2 17.7337 26.5622 23.2753
760 2 16.916 26.6955 21.9412
761 2 19.1419 36.8807 27.172
762 2 20.3819 24.9528 20.1357
763 2 24.3061 26.3337 24.4048
764 2 22.9787 26.7425 23.6884
765 2 14.1085 29.2367 22.7301
766 2 13.6707 30.6219 22.1252
767 2 15.6796 31.2966 25.0276
768 2 16.7906 30.6332 24.0744
769 2 16.9728 30.0947 21.8091
770 2 17.3435 28.8566 22.7251
771 2 19.0028 30.3306 22.7847
772 2 20.2861 29.5808 22.3967
773 2 20.5459 27.52 21.1302
774 2 19.0851 27.7329 21.7008
775 2 22.8993 32.0465 23.2446
776 2 23.8951 30.828 23.1861
777 2 14.1703 33.0507 22.3711
778 2 13.6704 32.3716 23.6821
779 2 16.3054 34.1424 22.8771
780 2 15.8721 35.3095 21.9699
781 2 16.5481 33.5794 20.5173
782 2 16.8727 32.1681 19.944
783 2 18.6459 33.9311 22.557
784 2 18.6999 33.7402 21.0089
785 2 20.3266 31.6744 21.2559
786 2 20.8336 32.7188 20.1726
787 2 24.311 34.2681 23.1485
788 2 22.9861 35.112 23.2046
789 2 18.1045 35.7831 21.6598
790 2 17.836 37.2226 21.115
791 2 21.7144 36.8694 21.5747
792 2 20.5119 35.8297 21.6473
793 2 10.088 27.7057 27.0197
794 2 11.4313 28.2708 26.4122
795 2 20.6639 37.0129 27.476
796 2 15.9309 26.76 28.4683
797 2 15.9314 27.7799 27.2607
798 2 21.6666 33.7458 29.0843
799 2 17.3409 25.1066 25.0874
800 2 19.6646 26.8374 26.9434
801 2 19.7489 28.003 25.8721
802 2 20.9396 26.5156 24.6369
803 2 22.1864 32.5647 28.1726
804 2 23.5469 26.5541 26.9228
805 2 23.5215 26.7208 28.4705
806 2 13.3411 29.0066 25.7206
807 2 13.0383 29.4701 27.22
808 2 14.5458 31.2186 28.5259
809 2 15.8583 31.8489 27.9317
810 2 17.2643 29.1549 25.7889
811 2 17.617 27.6561 25.6595
812 2 17.5343 31.3602 26.6077
813 2 17.8172 30.7457 28.0397
814 2 20.1987 30.2083 26.0993
815 2 19.7852 29.8574 24.6352
816 2 21.2343 30.4754 27.8428
817 2 22.4593 30.6815 26.9616
818 2 13.3478 31.1543 25.7117
819 2 14.2291 32.1877 26.4453
820 2 17.3358 35.3657 26.9327
821 2 16.6761 35.3902 25.5334
822 2 18.305 33.8601 24.7839
823 2 17.312 32.7169 24.3569
824 2 20.3341 33.7207 25.3879
825 2 19.7913 34.8326 26.3645
826 2 20.8808 31.746 23.9138
827 2 21.5168 31.9006 25.3342
828 2 24.2296 35.7088 27.4675
829 2 23.0426 34.6902 27.6157
830 2 18.5712 36.5254 24.9699
831 2 18.7279 36.9723 23.4998
832 2 21.0277 36.2148 24.6102
833 2 22.3436 35.8507 25.441
834 2 17.9367 33.4066 27.9864
835 2 12.1783 26.494 27.4845
836 2 17.1517 34.1934 29.0745
837 2 16.4606 25.2038 29.7549
838 2 15.1784 33.9588 30.7891
839 2 21.36 24.7883 28.6362
840 2 14.5272 28.8403 28.8264
841 2 13.6928 29.5117 29.9816
842 2 17.6842 29.8639 30.0245
843 2 17.0145 28.8477 29.0358
844 2 22.0518 29.1422 29.2892
845 2 21.4424 28.2609 28.1892
846 2 15.3563 32.9648 29.5806
847 2 26.2155 37.114 28.5314
848 2 22.6639 30.266 21.5885
849 2 24.3457 35.6978 21.5371
850 2 25.4379 31.6341 29.3392
851 2 24.4106 28.5849 23.8565
852 2 26.0005 34.2051 24.8706
853 2 25.0349 37.9539 25.0124
854 2 26.0575 23.6944 28.2046
855 2 23.7223 28.8865 27.1596
856 2 14.8989 25.9589 31.0931
857 2 16.374 26.3815 31.5824
858 2 18.9342 27.5983 28.9512
859 2 19.8659 26.4112 29.3518
860 2 22.9573 25.7124 30.2946
861 2 24.5661 25.8666 30.3752
862 2 17.2579 30.8107 32.1949
863 2 16.6987 31.8762 31.1195
864 2 20.2813 28.6878 30.6229
865 2 19.3449 28.0242 31.707
866 2 23.7606 28.8292 30.8161
867 2 22.9483 30.15 30.8712
868 2 19.9682 33.8871 30.4031
869 2 19.5699 34.751 29.1375
870 2 24.4699 32.197 31.1811
871 2 23.7832 32.9573 29.9378
872 2 21.6521 32.2362 36.8601
873 2 22.739 31.8426 35.7812
874 2 13.0285 27.2269 31.0308
875 2 13.2489 27.5409 34.8747
876 2 14.3542 26.6418 34.1934
877 2 15.3741 25.2075 33.0612
878 2 18.4123 25.6735 35.4123
879 2 17.7426 27.0994 35.3826
880 2 20.1138 27.2339 35.1105
881 2 21.2713 27.5152 36.1363
882 2 22.7633 25.0608 33.6234
883 2 22.4558 27.1162 34.4731
884 2 23.9345 26.6877 34.8806
885 2 13.6555 28.5656 32.7589
886 2 12.5131 29.4746 32.2116
887 2 17.9654 26.8862 33.1484
888 2 17.5192 28.3134 32.7596
889 2 18.5923 30.0684 33.9364
890 2 17.1573 29.6421 34.4691
891 2 20.915 26.7907 31.0488
892 2 20.8548 25.1775 31.0522
893 2 20.7046 30.8626 34.8948
894 2 20.6214 29.3154 34.6347
895 2 19.8503 32.9458 32.3199
896 2 18.8056 32.1026 31.4328
897 2 21.4473 30.4515 32.6476
898 2 21.1221 31.4222 31.5025
899 2 21.8681 32.6464 33.0718
900 2 21.5091 33.2976 34.4166
901 2 21.2298 36.0899 30.3002
902 2 22.4311 36.5475 31.1921
903 2 19.7902 24.1598 36.4234
904 2 18.619 24.4783 37.4231
905 2 15.4581 28.1839 35.2671
906 2 16.0797 28.7595 36.595
907 2 22.8718 26.5898 37.87
908 2 21.9031 25.6338 37.0847
909 2 26.3615 25.1473 32.6166
910 2 24.9298 30.8893 35.6301
911 2 24.1191 27.7327 32.95
912 2 24.4663 31.1661 33.4395
913 2 25.7833 28.3472 35.7059
914 2 26.7854 29.2808 36.4666
915 2 23.8266 34.611 31.7205
916 2 22.6934 37.4189 23.4555
917 2 22.5134 38.756 22.6924
918 2 24.4791 39.8924 26.4792
919 2 23.4434 38.774 26.8323
920 2 28.5125 14.4448 18.6197
921 2 27.527 10.7012 20.4383
922 2 26.5937 11.9758 20.3348
923 2 27.7296 10.9664 25.7135
924 2 26.5489 11.7013 26.4538
925 2 32.598 14.5556 24.2483
926 2 27.7054 24.2989 12.0902
927 2 27.333 24.325 10.577
928 2 25.3753 13.4291 16.24
929 2 26.7017 14.2285 16.2831
930 2 35.4648 20.6315 19.1072
931 2 24.719 15.2803 15.0748
932 2 24.4126 16.7192 15.5046
933 2 28.177 17.8601 14.2785
934 2 27.4901 19.2518 14.5423
935 2 29.6007 16.1489 13.2482
936 2 30.3436 17.4058 13.8063
937 2 32.2018 18.4582 15.5649
938 2 30.9302 19.2417 15.0503
939 2 36.1715 21.7977 18.331
940 2 26.1149 21.107 13.3921
941 2 27.6679 21.3217 13.1587
942 2 29.4572 20.9199 15.5437
943 2 30.5284 21.608 14.6393
944 2 31.1236 23.5018 15.5057
945 2 30.2909 23.9464 14.2088
946 2 33.729 20.7874 15.7731
947 2 33.1712 21.9323 14.8293
948 2 35.2536 23.6613 17.6359
949 2 35.1206 22.721 16.3877
950 2 23.6472 11.8246 17.2033
951 2 35.3145 22.7434 21.7962
952 2 25.9703 16.7122 19.4178
953 2 26.553 15.6439 18.4539
954 2 28.6453 15.468 17.4301
955 2 36.0581 22.4639 20.4411
956 2 30.8902 16.2349 19.5279
957 2 30.0372 17.0706 18.4533
958 2 25.6404 17.1908 17.2564
959 2 25.6558 20.2452 18.6547
960 2 25.6028 19.3798 17.3103
961 2 30.2453 17.4359 16.239
962 2 28.7368 17.6671 16.4404
963 2 30.797 20.5474 18.9016
964 2 29.8873 21.6849 19.3969
965 2 34.588 18.5384 15.9504
966 2 33.9901 19.0274 17.3265
967 2 33.2633 19.2954 19.376
968 2 34.6335 18.5521 19.5757
969 2 24.5335 21.5557 17.3779
970 2 32.4268 22.6422 16.8741
971 2 27.79 22.8057 17.5844
972 2 27.2596 23.1879 19.0818
973 2 27.4365 21.5892 15.4694
974 2 27.2503 20.9551 16.8749
975 2 31.0332 24.3064 19.5033
976 2 32.5274 23.897 19.4329
977 2 31.0981 22.4627 17.6842
978 2 25.5957 25.2678 12.0411
979 2 28.9912 25.7901 13.1654
980 2 32.1144 25.3043 14.5042
981 2 26.1504 24.0838 17.4442
982 2 29.3179 25.7566 19.3954
983 2 34.8605 24.064 19.7986
984 2 36.5593 24.5273 16.0042
985 2 36.4119 22.6862 29.4329
986 2 37.0115 21.4141 28.7678
987 2 26.1396 14.1953 22.401
988 2 25.7714 14.2811 20.8955
989 2 28.7687 12.9116 20.6132
990 2 29.1652 14.1714 21.4337
991 2 30.2336 14.886 23.4121
992 2 29.0929 15.9118 23.163
993 2 31.1652 14.2213 20.1837
994 2 32.5392 14.9158 20.5761
995 2 33.0818 15.8948 22.6007
996 2 34.3171 15.0084 22.6134
997 2 25.1285 16.3779 21.6527
998 2 26.422 19.1998 22.8982
999 2 26.129 19.9489 21.5565
1000 2 28.6221 16.8061 20.2174
1001 2 27.4663 16.0419 20.996
1002 2 29.9441 19.1354 22.7107
1003 2 31.0723 20.2502 23.0295
1004 2 31.1873 18.4114 19.6897
1005 2 31.3756 19.4902 20.803
1006 2 35.5292 18.722 23.9093
1007 2 35.7691 18.5939 22.3496
1008 2 36.204 17.058 20.5987
1009 2 34.8096 16.777 21.2828
1010 2 34.709 20.8169 27.6291
1011 2 34.1352 21.9109 28.6122
1012 2 25.154 21.5066 20.4896
1013 2 27.6533 22.3017 20.8834
1014 2 26.6908 23.4825 21.2443
1015 2 29.6848 21.189 21.5788
1016 2 29.7656 22.7732 21.4683
1017 2 30.5434 24.3235 23.1655
1018 2 29.0135 24.463 22.7768
1019 2 35.1719 20.7363 23.0822
1020 2 33.8235 21.4994 23.37
1021 2 36.8404 23.7297 24.151
1022 2 35.7077 22.7062 24.4176
1023 2 37.7931 19.8294 23.2057
1024 2 38.9026 20.9764 23.1596
1025 2 40.5625 23.0281 22.7784
1026 2 39.8479 23.2569 24.1636
1027 2 26.5601 12.0306 22.5771
1028 2 27.9436 14.8114 27.5776
1029 2 27.3126 15.7479 28.7039
1030 2 28.6754 14.5204 24.9293
1031 2 28.1983 13.3518 25.862
1032 2 31.3828 15.606 27.2585
1033 2 30.0835 15.1131 26.4467
1034 2 28.4833 20.6832 28.3927
1035 2 31.597 15.5499 24.9084
1036 2 33.9724 15.4885 27.3865
1037 2 35.4196 16.0732 27.3877
1038 2 25.9175 18.6713 25.0289
1039 2 29.4666 20.2365 29.5422
1040 2 27.333 20.1032 26.4634
1041 2 28.7304 19.3213 26.8033
1042 2 28.0903 17.8359 23.7373
1043 2 28.3652 17.646 22.2274
1044 2 31.5624 19.1696 26.6208
1045 2 32.7664 20.139 27.0184
1046 2 33.7057 18.6097 25.6433
1047 2 34.5462 17.2767 25.8092
1048 2 35.5272 19.1124 26.5945
1049 2 36.7647 20.0612 26.7732
1050 2 34.7452 14.6474 25.3192
1051 2 34.9768 13.2643 24.6198
1052 2 26.4324 22.5856 24.1495
1053 2 24.4843 21.8632 28.4413
1054 2 28.3404 23.0588 25.2925
1055 2 27.147 23.7921 26.0469
1056 2 30.1964 21.7254 24.9181
1057 2 29.2087 21.316 26.077
1058 2 31.0728 22.6862 26.7657
1059 2 32.5856 22.5269 27.204
1060 2 32.2346 20.7763 24.9151
1061 2 32.0845 22.2497 24.2357
1062 2 37.5323 23.5395 27.7555
1063 2 36.9256 24.0284 26.4063
1064 2 37.422 21.7706 25.5724
1065 2 38.2716 20.5438 25.1354
1066 2 39.6806 22.0296 28.4445
1067 2 39.302 21.4036 27.0783
1068 2 26.5078 13.9122 29.3271
1069 2 29.9602 13.5106 30.3448
1070 2 29.3467 14.5715 29.3618
1071 2 32.645 16.2287 29.2933
1072 2 31.916 14.8581 29.1337
1073 2 25.834 17.0896 30.0157
1074 2 36.0851 17.1061 29.4233
1075 2 30.1208 18.3021 28.1921
1076 2 30.2788 17.3649 26.9154
1077 2 33.0787 18.0688 31.2968
1078 2 32.0248 16.8966 31.3992
1079 2 36.3651 18.0193 28.1865
1080 2 24.185 26.1558 22.0426
1081 2 26.7358 25.7143 22.2175
1082 2 32.3412 25.2786 21.0157
1083 2 38.3498 24.1786 22.784
1084 2 36.9238 24.2376 22.1073
1085 2 28.5927 25.1005 24.958
1086 2 31.9576 24.0256 25.3289
1087 2 40.3021 23.1514 26.3789
1088 2 26.9833 24.9308 28.003
1089 2 28.8748 25.9272 28.6845
1090 2 36.541 25.7043 29.7537
1091 2 37.0409 25.5092 28.2439
1092 2 27.4898 13.0301 32.5362
1093 2 26.2818 13.0287 31.5237
1094 2 30.3716 15.3477 31.2264
1095 2 29.6359 16.5104 31.9816
1096 2 26.4138 20.6424 31.6277
1097 2 27.6892 20.5333 30.6731
1098 2 29.6952 18.4466 30.7282
1099 2 31.1671 18.4203 30.2031
1100 2 34.4042 19.4691 32.9082
1101 2 32.8343 19.4401 33.0103
1102 2 28.0819 23.0623 31.1573
1103 2 28.784 22.3815 29.9367
1104 2 30.3089 23.2833 31.1923
1105 2 30.7213 23.8039 32.5495
1106 2 34.2849 22.7856 30.6655
1107 2 34.035 23.8646 29.5518
1108 2 33.362 21.8917 35.7675
1109 2 25.3078 13.7254 35.1298
1110 2 25.6623 13.7676 33.5876
1111 2 25.6803 15.9952 34.4179
1112 2 26.6943 17.2342 34.4979
1113 2 29.6772 14.1032 32.7452
1114 2 29.7651 12.6423 33.3007
1115 2 32.3309 20.7266 35.5607
1116 2 24.0969 17.9736 31.6789
1117 2 25.104 17.1264 32.542
1118 2 27.8729 21.1149 36.4254
1119 2 28.7201 20.9482 35.0925
1120 2 28.543 18.0594 33.1083
1121 2 27.9189 18.6814 31.8408
1122 2 31.215 18.8056 34.4087
1123 2 30.7242 20.2026 33.838
1124 2 31.6172 16.4844 35.171
1125 2 30.8683 16.4332 33.7836
1126 2 29.8774 21.6818 36.8664
1127 2 27.4424 22.1356 38.3482
1128 2 26.3702 22.9735 37.5532
1129 2 28.5247 21.0007 32.7608
1130 2 29.2442 22.2727 33.3917
1131 2 30.8935 25.2928 35.8667
1132 2 30.3217 23.9598 36.5902
1133 2 33.4852 21.1854 32.0153
1134 2 32.5578 22.4837 31.9504
1135 2 34.1884 22.6361 33.6554
1136 2 35.1242 23.4711 34.6063
1137 2 36.0376 19.6558 34.7422
1138 2 35.4497 21.0201 34.2511
1139 2 24.9887 17.7543 35.6207
1140 2 31.3974 22.0065 37.0326
1141 2 28.3391 18.8765 35.424
1142 2 29.1176 17.5314 35.1481
1143 2 24.6731 19.9963 36.2735
1144 2 29.5976 22.5514 38.7789
1145 2 29.1248 22.1559 40.2326
1146 2 28.1847 24.3289 33.5972
1147 2 32.6662 25.0702 32.0855
1148 2 32.6733 25.8856 34.3714
1149 2 28.8912 25.8529 36.8207
1150 2 28.0617 27.9704 12.4332
1151 2 28.8856 27.9209 13.7416
1152 2 28.5845 34.5537 17.1575
1153 2 28.8509 33.1723 16.5038
1154 2 26.0891 25.2316 15.6322
1155 2 26.0044 25.8924 14.1898
1156 2 25.8589 33.3132 14.9121
1157 2 28.0845 24.9929 14.1217
1158 2 30.9485 27.4592 17.3446
1159 2 30.1508 26.1069 17.4227
1160 2 32.8017 31.9125 17.0743
1161 2 31.6239 26.3294 15.5685
1162 2 35.5623 26.5902 15.2963
1163 2 34.0113 26.7564 15.3116
1164 2 32.6948 33.0836 18.1143
1165 2 25.8316 29.2486 11.893
1166 2 26.5921 30.4294 15.8418
1167 2 27.6869 29.3753 15.3899
1168 2 28.9883 27.4145 16.1565
1169 2 27.5547 27.0151 15.531
1170 2 32.0415 30.0242 15.6189
1171 2 30.9082 30.8175 16.4676
1172 2 33.6172 28.8423 14.4288
1173 2 32.2953 28.1455 14.1443
1174 2 31.836 33.4467 20.0348
1175 2 25.3197 31.4928 12.3903
1176 2 31.4359 34.8262 19.4616
1177 2 27.0399 31.5944 13.9584
1178 2 27.347 32.9885 13.2832
1179 2 28.6421 34.3692 14.5281
1180 2 29.4443 34.471 13.1775
1181 2 28.6352 31.0298 16.3667
1182 2 24.8315 26.1416 19.744
1183 2 25.1308 25.717 18.2205
1184 2 29.1571 31.2152 17.8493
1185 2 28.8513 24.5525 18.4539
1186 2 29.5834 26.0208 21.5123
1187 2 28.3499 27.0072 21.2586
1188 2 25.5949 34.3272 18.0937
1189 2 34.2763 25.3294 19.0341
1190 2 34.8345 27.4816 18.8706
1191 2 33.2739 27.5755 18.8661
1192 2 25.3016 33.5335 19.4116
1193 2 37.5214 25.7452 16.1313
1194 2 25.2234 31.9846 16.4216
1195 2 23.7024 27.3632 18.3937
1196 2 25.5782 29.3319 19.7397
1197 2 24.3056 29.3206 20.6763
1198 2 27.3853 28.2531 17.5505
1199 2 26.4796 27.6524 18.6773
1200 2 29.4267 30.0057 19.857
1201 2 28.0293 29.8002 19.1902
1202 2 31.9444 29.3131 17.7385
1203 2 31.4942 28.8163 19.2095
1204 2 34.0934 30.1116 19.3221
1205 2 34.254 31.3884 18.4252
1206 2 35.637 29.2267 17.9479
1207 2 35.5106 28.027 16.9273
1208 2 31.5404 35.868 27.0351
1209 2 32.2272 37.2362 26.6459
1210 2 27.9165 27.0532 24.654
1211 2 26.7665 27.6837 25.5095
1212 2 28.3066 35.2884 30.2122
1213 2 29.6675 35.4512 29.4115
1214 2 26.7081 24.6929 23.4157
1215 2 30.8331 26.5203 24.0378
1216 2 32.0288 26.6821 23.0236
1217 2 33.2623 26.5574 20.8835
1218 2 33.918 25.2757 22.6516
1219 2 34.8538 25.5543 23.8642
1220 2 25.8979 35.7895 29.2542
1221 2 36.3855 27.471 24.6957
1222 2 36.8627 26.3563 23.6203
1223 2 22.031 29.8043 20.2495
1224 2 36.2782 32.4665 28.8423
1225 2 26.0852 30.467 23.9109
1226 2 27.5115 30.8463 24.4714
1227 2 26.7867 27.7434 22.8658
1228 2 26.2 28.077 21.4265
1229 2 31.4401 30.2697 23.4575
1230 2 31.1719 28.6918 23.5943
1231 2 30.1405 28.1261 20.7973
1232 2 30.7155 29.3416 21.6075
1233 2 37.3624 31.7647 23.4403
1234 2 36.1142 30.8841 23.0702
1235 2 35.7953 28.4741 22.9076
1236 2 35.7122 29.2004 21.5285
1237 2 35.3852 33.6809 28.4163
1238 2 23.9937 32.1517 21.0162
1239 2 23.7114 31.6976 19.5323
1240 2 26.7753 34.2946 22.7026
1241 2 27.694 33.635 21.6553
1242 2 28.4212 31.4478 20.9807
1243 2 27.7092 31.5315 22.411
1244 2 29.4822 32.7256 23.1378
1245 2 30.8481 32.6105 23.9181
1246 2 33.9784 32.9936 21.0515
1247 2 33.0552 34.0421 21.7684
1248 2 32.3678 35.6904 23.1023
1249 2 33.8964 35.3035 23.1488
1250 2 35.5246 31.9626 20.0826
1251 2 36.026 32.4793 21.4787
1252 2 25.2518 35.6635 20.2004
1253 2 31.8227 32.0384 27.7455
1254 2 29.4007 34.2794 19.1515
1255 2 27.8316 34.5219 19.1678
1256 2 30.4588 36.5803 20.6065
1257 2 31.9864 36.4753 20.9038
1258 2 32.554 32.5591 29.0969
1259 2 25.1243 25.0992 26.4458
1260 2 26.8725 27.7777 28.0197
1261 2 25.4613 27.4503 27.4446
1262 2 29.4032 26.1211 25.8429
1263 2 28.2245 32.4107 30.7353
1264 2 30.9895 26.2808 27.1654
1265 2 30.0142 27.4238 27.6044
1266 2 28.5356 31.8179 29.2846
1267 2 32.872 24.2963 24.0749
1268 2 34.3408 28.2013 28.6105
1269 2 35.2657 26.964 28.3033
1270 2 24.7948 30.2527 29.4612
1271 2 39.2136 24.1999 26.1228
1272 2 39.1456 28.2095 29.6841
1273 2 37.7451 27.5626 29.3879
1274 2 24.3658 29.5992 25.0699
1275 2 35.9228 30.193 28.7606
1276 2 27.1227 31.0743 27.6438
1277 2 28.4402 30.7592 26.8356
1278 2 28.2655 29.0874 25.0825
1279 2 29.5587 29.9081 24.7296
1280 2 30.9591 30.0622 27.4248
1281 2 32.1815 30.5192 26.4892
1282 2 33.2469 26.6899 27.0037
1283 2 32.4833 26.5617 25.6109
1284 2 34.6561 30.2151 25.6725
1285 2 34.297 31.6663 26.1551
1286 2 36.4649 29.4545 26.5726
1287 2 35.3758 28.3797 26.6143
1288 2 26.0609 32.7782 24.1265
1289 2 37.4429 29.9691 28.7388
1290 2 26.4324 35.5954 26.9388
1291 2 27.5563 34.8457 26.1044
1292 2 28.4694 32.8577 26.7327
1293 2 29.2161 33.3754 25.4261
1294 2 31.1341 34.138 28.2095
1295 2 29.8749 34.4828 27.3539
1296 2 33.0568 31.5562 24.2424
1297 2 32.7228 32.1792 22.7871
1298 2 33.4217 33.658 27.3544
1299 2 33.7249 35.0525 26.7655
1300 2 35.5055 33.5104 23.8884
1301 2 34.8104 34.1711 25.1254
1302 2 26.0243 36.7012 25.0214
1303 2 28.3732 35.7904 21.8728
1304 2 29.4251 36.6124 22.6986
1305 2 31.0738 36.0369 24.8012
1306 2 30.4433 34.8671 23.9357
1307 2 34.116 30.4122 30.2109
1308 2 35.0833 29.2285 30.667
1309 2 28.4338 24.761 29.6636
1310 2 29.2454 29.0578 28.8561
1311 2 31.8867 24.3092 29.9845
1312 2 32.1089 24.3485 28.4376
1313 2 30.6205 28.3595 29.2744
1314 2 24.5792 30.1902 27.389
1315 2 26.8727 26.2485 30.5319
1316 2 25.889 27.0364 31.531
1317 2 31.8347 26.5009 29.7063
1318 2 31.0701 26.9331 31.0105
1319 2 36.1316 26.5207 31.705
1320 2 35.1254 25.3448 31.7153
1321 2 27.818 28.6174 30.4259
1322 2 26.9451 29.5439 29.4782
1323 2 30.1131 31.158 30.9256
1324 2 31.3019 30.1753 30.674
1325 2 34.3763 32.561 30.1385
1326 2 33.2555 32.4858 31.2937
1327 2 26.6104 35.4793 31.5732
1328 2 26.008 34.2207 30.8024
1329 2 29.8147 35.0217 31.7537
1330 2 30.7189 34.1701 32.7309
1331 2 29.451 30.0358 36.1471
1332 2 28.9417 30.6142 34.8053
1333 2 26.111 25.832 34.8615
1334 2 26.7048 26.3839 36.2056
1335 2 24.864 32.4195 35.1505
1336 2 29.4447 24.3373 34.5802
1337 2 32.9935 29.4545 34.9176
1338 2 29.7569 25.757 32.9461
1339 2 30.8475 26.7256 33.4916
1340 2 33.2067 26.5089 32.364
1341 2 33.4731 29.0661 36.3594
1342 2 36.1889 27.051 34.6803
1343 2 35.2514 28.2833 34.9026
1344 2 37.1874 24.7382 34.6589
1345 2 36.3477 25.1243 33.4022
1346 2 28.382 28.0058 37.3317
1347 2 24.7739 29.1311 32.512
1348 2 28.434 29.2839 38.269
1349 2 27.8482 29.6015 33.0997
1350 2 26.9135 29.8258 34.4014
1351 2 29.1889 27.876 32.3238
1352 2 29.4947 29.3076 31.7571
1353 2 31.8295 30.2341 33.237
1354 2 31.1833 30.6659 34.6026
1355 2 32.8844 28.3737 31.39
1356 2 33.867 28.7328 32.5333
1357 2 37.0704 28.5368 31.4824
1358 2 36.2919 28.3562 32.8835
1359 2 25.8532 30.9153 32.8092
1360 2 26.2819 33.6105 33.7422
1361 2 24.9212 34.373 33.7943
1362 2 28.4901 33.4681 32.7917
1363 2 27.8345 32.0691 33.1614
1364 2 32.9911 33.665 33.4407
1365 2 32.2501 32.2899 33.3552
1366 2 22.79 34.6937 32.8691
1367 2 32.4614 27.1847 35.1977
1368 2 28.2156 35.8648 33.2221
1369 2 26.8118 35.8669 33.8691
1370 2 27.9084 25.953 38.0694
1371 2 25.2618 24.9941 36.9255
1372 2 26.5126 24.8704 39.1776
1373 2 27.9317 24.3618 39.5973
1374 2 28.2729 37.3758 29.7001
1375 2 28.1965 38.811 29.0891
1376 2 25.9971 37.6081 23.061
1377 2 27.273 37.4694 22.0254
1378 2 25.6408 37.0145 21.4496
