1378
Lattice="50.0 0.0 0.0 0.0 50.0 0.0 0.0 0.0 50.0" Properties=species:S:1:pos:R:3 pbc="T T T"
O       23.44250000      12.04880000      21.76890000
O       25.28700000      11.72530000      27.62380000
O       22.19190000      21.56470000      11.21660000
O       22.15880000      14.44980000      16.45830000
O       19.38790000      19.72920000      15.38500000
O       21.76880000      17.89190000      15.31700000
O       22.84700000      20.46210000      15.08110000
O       16.02420000      22.65140000      15.04220000
O       17.27350000      24.14810000      13.16960000
O       19.97510000      23.78540000      13.54000000
O       20.73640000      21.17100000      13.52610000
O       23.96010000      23.70310000      14.25820000
O       18.87040000      16.99190000      18.50790000
O       19.11410000      14.17380000      19.26800000
O       23.02750000      15.52990000      19.64050000
O       15.37230000      19.55860000      19.77150000
O       16.36340000      18.24690000      17.61090000
O       19.78710000      19.88430000      20.64640000
O       21.48220000      17.12900000      17.99760000
O       22.64190000      19.54150000      18.86370000
O       13.51030000      24.01730000      15.11130000
O       13.81330000      24.06070000      17.76740000
O       16.74470000      19.89380000      15.32370000
O       17.17300000      23.64590000      19.82340000
O       20.17790000      20.49890000      17.97240000
O       21.24450000      23.03190000      18.00010000
O       24.00300000      15.96240000      15.01320000
O       16.72300000      17.18820000      22.55000000
O       17.68420000      14.87400000      21.64310000
O       20.13950000      15.22020000      23.10410000
O       21.30960000      13.78100000      20.94550000
O       22.95780000      15.07210000      23.97190000
O       14.14750000      18.12800000      21.73040000
O       13.85060000      20.02250000      23.85110000
O       17.31770000      19.79180000      21.62430000
O       16.20950000      21.48020000      23.49970000
O       20.68160000      17.70340000      22.24810000
O       23.25380000      18.95450000      22.59870000
O       10.84520000      23.03010000      23.44160000
O       12.91130000      22.19320000      21.99780000
O       14.92730000      23.79220000      22.84750000
O       14.56150000      22.22480000      19.70960000
O       20.01110000      23.94690000      23.03220000
O       21.89890000      21.24000000      21.96220000
O       24.05290000      23.04840000      21.80340000
O       16.18420000      16.20370000      25.22850000
O       18.91630000      15.32280000      25.61190000
O       20.19730000      17.06920000      27.23270000
O       23.36960000      13.40930000      26.12510000
O       23.69260000      17.19680000      27.62290000
O       14.60720000      18.24630000      26.12210000
O       15.84690000      20.27160000      27.50690000
O       18.24380000      18.61670000      24.73580000
O       20.85630000      19.20730000      25.16580000
O       23.10860000      17.54490000      24.98790000
O       25.78220000      20.23200000      25.87470000
O       12.56220000      23.25810000      27.76910000
O       11.86910000      21.51680000      25.52600000
O       16.08330000      24.67240000      26.23730000
O       17.02490000      22.14540000      26.03250000
O       19.52170000      22.40300000      26.79450000
O       21.05190000      21.85010000      24.68630000
O       22.86720000      23.12130000      26.30830000
O       19.55090000      13.79370000      28.04130000
O       22.07400000      14.95320000      28.17860000
O       14.89450000      17.24310000      28.70640000
O       17.57030000      17.99530000      27.51610000
O       22.69050000      19.35310000      28.88260000
O       14.26960000      21.67620000      29.27960000
O       16.66810000      21.18170000      30.59860000
O       20.33310000      20.04650000      27.85310000
O       19.96070000      24.05410000      20.20410000
O       12.90710000      26.01340000      27.94930000
O       16.77140000      25.30580000      28.81070000
O       25.02020000      20.56000000      20.24560000
O       25.73460000      21.99920000      23.76610000
O       24.32690000      25.33600000      25.91380000
O       18.97040000      14.69610000      30.46050000
O       23.54960000      14.82610000      30.49470000
O       15.29300000      18.74010000      31.12650000
O       18.78560000      19.65210000      30.01780000
O       22.80880000      19.42950000      31.54000000
O       17.15200000      22.93520000      32.59210000
O       21.26000000      23.28080000      31.27950000
O       24.97870000      23.00990000      29.55640000
O       21.32300000      13.86340000      32.00660000
O       22.45990000      14.99430000      34.14540000
O       17.92540000      17.25360000      31.04990000
O       18.99550000      17.68400000      33.45930000
O       21.76250000      17.62990000      33.60590000
O       21.73200000      18.18580000      36.35140000
O       13.40480000      20.62120000      31.85330000
O       14.60450000      22.42220000      33.86660000
O       18.41090000      20.50210000      34.00530000
O       18.32780000      21.41880000      36.51890000
O       20.38780000      20.71630000      31.96710000
O       24.76860000      22.64320000      34.03140000
O       21.53630000      15.39740000      36.67950000
O       15.83070000      20.63560000      35.67310000
O       20.55470000      20.40620000      37.59840000
O       22.89510000      22.27590000      37.71020000
O       13.24430000      26.31500000      30.74620000
O       22.48840000      24.10930000      33.64780000
O       18.78650000      24.17800000      36.51070000
O       25.17140000      14.26570000      34.33140000
O       24.65560000      17.16640000      31.66120000
O       24.71760000      20.99120000      36.32670000
O       22.78000000      26.48290000      11.58480000
O       15.79750000      28.01340000      16.04950000
O       17.31230000      26.91080000      13.86230000
O       18.99670000      28.96160000      14.04430000
O       21.13640000      24.36670000      11.05030000
O       21.03150000      34.12900000      17.05630000
O       21.73690000      26.98330000      15.95480000
O       16.10010000      30.24540000      14.47100000
O       19.73610000      31.69910000      14.01420000
O       21.72500000      28.23800000      13.53890000
O       23.22800000      30.36260000      14.52320000
O       22.02250000      33.23350000      13.04180000
O       22.95000000      34.90670000      15.16530000
O       13.25720000      26.97100000      15.44780000
O       13.96900000      27.56940000      20.05310000
O       16.58060000      24.18610000      17.22230000
O       18.05610000      26.46300000      18.33500000
O       21.58050000      24.36910000      15.61330000
O       21.77710000      34.12490000      19.66340000
O       21.54020000      26.33420000      20.23760000
O       13.59940000      29.24220000      13.67630000
O       16.21250000      30.45200000      20.35180000
O       16.14390000      28.30150000      18.68860000
O       19.62750000      29.59090000      18.92630000
O       19.38930000      28.26200000      16.62950000
O       23.03920000      30.48590000      18.13450000
O       17.49510000      32.84350000      14.89510000
O       18.09540000      33.97120000      17.27980000
O       21.35390000      31.58940000      16.21650000
O       26.40670000      28.44950000      11.86010000
O       24.63290000      30.86780000      12.06390000
O       22.82870000      27.81840000      18.21840000
O       11.21930000      25.78150000      24.33500000
O       12.42610000      26.45870000      18.18540000
O       14.37080000      28.33710000      24.39350000
O       15.79430000      25.71450000      21.12070000
O       17.58200000      27.18260000      22.50840000
O       22.28530000      37.83800000      27.92450000
O       23.97320000      26.89820000      23.66280000
O       13.90280000      29.68660000      21.87550000
O       16.65210000      31.14870000      24.92130000
O       17.34860000      29.85740000      22.70820000
O       19.99350000      30.38590000      22.90990000
O       19.86660000      28.21070000      21.33220000
O       23.47670000      31.53920000      22.63010000
O       13.61340000      32.31440000      22.70350000
O       15.68350000      34.36370000      22.14270000
O       17.16770000      33.10980000      19.91440000
O       19.03820000      34.31610000      21.73490000
O       20.42910000      31.82000000      20.29680000
O       23.64660000      34.73340000      22.58080000
O       17.56840000      36.61210000      21.82250000
O       21.08280000      36.33000000      21.03410000
O       10.88900000      27.43240000      26.53880000
O       14.03060000      25.59880000      24.66250000
O       19.93620000      36.35510000      27.36760000
O       15.45320000      27.56170000      28.10330000
O       18.07160000      25.37350000      24.47150000
O       19.72830000      27.00300000      25.96980000
O       21.36500000      26.35640000      23.76510000
O       23.36430000      27.23170000      27.63320000
O       12.66270000      29.44290000      26.30990000
O       14.91920000      32.07700000      28.19040000
O       16.86870000      28.25940000      25.84580000
O       17.53420000      31.56680000      27.56820000
O       19.57770000      29.64650000      25.58270000
O       21.57910000      31.11550000      27.15960000
O       13.99110000      31.87920000      25.53730000
O       17.17560000      35.95430000      26.15180000
O       17.64640000      33.60670000      24.07230000
O       19.56110000      33.97050000      25.93850000
O       21.44380000      32.34320000      24.46050000
O       23.35130000      35.46960000      27.08300000
O       19.24320000      36.84500000      24.32350000
O       21.98520000      35.99100000      24.53840000
O       22.50080000      33.32910000      28.71780000
O       17.79170000      34.31730000      28.33910000
O       21.20810000      23.85310000      28.41590000
O       13.93430000      29.61140000      29.03610000
O       17.86160000      29.30290000      29.22430000
O       21.19160000      28.98550000      28.79780000
O       15.83750000      33.39490000      30.34960000
O       24.02500000      25.65190000      21.20300000
O       24.04240000      32.44970000      20.07170000
O       24.80610000      36.28020000      20.83160000
O       24.58960000      29.53320000      24.10710000
O       15.80710000      25.61280000      31.32560000
O       19.16900000      26.67700000      28.69380000
O       23.80700000      25.55660000      29.81240000
O       17.38480000      31.18670000      31.28420000
O       20.28880000      28.24230000      31.49610000
O       23.40470000      29.54390000      30.21840000
O       20.30730000      34.57390000      29.76630000
O       24.62140000      32.86310000      30.46880000
O       14.06500000      27.61610000      34.34930000
O       15.02240000      25.21810000      33.98890000
O       21.77090000      32.05840000      35.91200000
O       18.45540000      26.55730000      34.97430000
O       23.31550000      26.73980000      34.12280000
O       13.30050000      28.97810000      31.93000000
O       17.70780000      27.42500000      32.36040000
O       17.64610000      29.91490000      33.65960000
O       21.15340000      25.95500000      30.53180000
O       20.34330000      30.19710000      34.26560000
O       19.68910000      32.57070000      31.43010000
O       21.89670000      31.01150000      31.96650000
O       21.50850000      33.48110000      33.45150000
O       21.83440000      36.85100000      30.47900000
O       20.98930000      27.69850000      35.20540000
O       21.46270000      24.11670000      36.19420000
O       21.97040000      26.52690000      37.51000000
O       16.31360000      28.46500000      35.69740000
O       24.33930000      31.58030000      35.25440000
O       24.63630000      28.18840000      32.23050000
O       24.89260000      30.91130000      32.58380000
O       25.19700000      24.34350000      37.66870000
O       22.88990000      37.86260000      22.59550000
O       24.05910000      39.09160000      26.12240000
O       27.39040000      11.58830000      20.81060000
O       27.23130000      11.80120000      25.73330000
O       26.97740000      24.08280000      11.44920000
O       25.95180000      14.00790000      15.69360000
O       27.66100000      18.37090000      14.95080000
O       29.55300000      17.11920000      13.29090000
O       31.31410000      18.32340000      15.16140000
O       24.44990000      21.39560000      13.06710000
O       36.21680000      21.26750000      19.15990000
O       27.02020000      20.94350000      13.77890000
O       30.12230000      20.73390000      14.83770000
O       31.11610000      23.49090000      14.50730000
O       33.69230000      21.76550000      15.63430000
O       35.79200000      23.15460000      16.96320000
O       23.97590000      12.71410000      17.41690000
O       25.73070000      16.16820000      18.63630000
O       28.03470000      14.81560000      17.84590000
O       30.27430000      17.01360000      19.41610000
O       25.44640000      17.83730000      16.51680000
O       35.81390000      23.20040000      21.07060000
O       25.75480000      20.29680000      17.66730000
O       29.47390000      17.11230000      16.78340000
O       30.24280000      21.29350000      18.55800000
O       33.84150000      19.03350000      16.32870000
O       34.19170000      19.21800000      18.99670000
O       23.76540000      22.14010000      17.13900000
O       27.54210000      23.56030000      18.18770000
O       27.85550000      21.55100000      16.36360000
O       31.79650000      24.04580000      20.07460000
O       31.62130000      23.13110000      17.14790000
O       25.08170000      25.86360000      12.63640000
O       28.81820000      24.85590000      13.46770000
O       34.38980000      24.34600000      18.97120000
O       25.19280000      12.82020000      19.94460000
O       26.11260000      14.83380000      21.64340000
O       29.28350000      13.74950000      20.54720000
O       29.26090000      14.93390000      23.22790000
O       31.85560000      14.85000000      19.87770000
O       33.81270000      15.59570000      22.00820000
O       24.65070000      17.14500000      21.24940000
O       37.24300000      22.31920000      29.04290000
O       26.71670000      19.95900000      22.35040000
O       27.75520000      16.92910000      20.68030000
O       30.51390000      19.84290000      22.32010000
O       31.66400000      19.27310000      19.87810000
O       35.95270000      19.16610000      23.13330000
O       35.39470000      17.50040000      20.90870000
O       26.79670000      22.73070000      20.61290000
O       29.32790000      21.97600000      21.08850000
O       29.91910000      24.41230000      22.40600000
O       34.77470000      21.64600000      23.15250000
O       36.47160000      23.14320000      24.86910000
O       38.67420000      20.10570000      23.54970000
O       39.69420000      22.96330000      23.20890000
O       26.01590000      12.55310000      23.20530000
O       33.88800000      21.33180000      27.84250000
O       27.83430000      14.90720000      28.55270000
O       28.58370000      14.26010000      25.88340000
O       30.80570000      15.79090000      26.47380000
O       31.91520000      15.22280000      24.02600000
O       34.72260000      15.69640000      26.78290000
O       26.19040000      17.96670000      24.38380000
O       28.26920000      20.19630000      26.81640000
O       28.83260000      17.70510000      23.10700000
O       32.36730000      19.64190000      26.26470000
O       34.58080000      18.18890000      25.42770000
O       36.02240000      19.62510000      27.29320000
O       34.56320000      14.13420000      24.48800000
O       28.75910000      20.90020000      29.33010000
O       27.54360000      23.64280000      25.14100000
O       29.70350000      22.09540000      25.67860000
O       31.85790000      23.18190000      27.10060000
O       32.09930000      21.25770000      24.05560000
O       37.52390000      24.32100000      27.14080000
O       37.88700000      20.97880000      25.95510000
O       40.06750000      21.76220000      27.59140000
O       25.81280000      13.33010000      29.73620000
O       24.16530000      21.25120000      27.71870000
O       30.17840000      14.33570000      29.87010000
O       32.50430000      15.48610000      28.65590000
O       26.16940000      16.99130000      29.09750000
O       30.16200000      18.31340000      27.20310000
O       32.53770000      17.43120000      30.75190000
O       36.38720000      17.07880000      28.49940000
O       27.01470000      24.80310000      22.49800000
O       31.98540000      23.90630000      24.35050000
O       32.38280000      24.78740000      29.28780000
O       26.50830000      12.97810000      32.48420000
O       30.38960000      15.87350000      32.08210000
O       27.37770000      20.37830000      31.60390000
O       30.25510000      18.74060000      29.97040000
O       33.58180000      19.39860000      32.35150000
O       28.76680000      23.23340000      30.48740000
O       31.13840000      23.50970000      31.70770000
O       34.63590000      23.11840000      29.79090000
O       25.74730000      16.98370000      34.35170000
O       29.34560000      13.18670000      32.61200000
O       28.61180000      20.60240000      36.02170000
O       28.52940000      17.95200000      32.12430000
O       31.51710000      19.70930000      34.16280000
O       30.91700000      16.91250000      34.64650000
O       24.86540000      21.30400000      31.69440000
O       32.70620000      21.32980000      36.24320000
O       26.82750000      22.09330000      37.57820000
O       29.19470000      21.28810000      33.44080000
O       30.07040000      24.79990000      36.11450000
O       33.49690000      22.17720000      32.04540000
O       34.61660000      22.62960000      34.55110000
O       35.71120000      20.11260000      33.94880000
O       24.55490000      18.26430000      36.37880000
O       28.29280000      18.01620000      34.92970000
O       30.48300000      22.33440000      37.30740000
O       28.85260000      22.65140000      39.44080000
O       26.55860000      24.71380000      33.49200000
O       29.17580000      24.15510000      33.63410000
O       36.30280000      25.04560000      34.39400000
O       28.14240000      26.39650000      37.19440000
O       28.88310000      27.57510000      12.82740000
O       28.46370000      34.06420000      16.29120000
O       26.61940000      25.72750000      14.94720000
O       25.74080000      33.67060000      15.83060000
O       30.44750000      26.81750000      16.77090000
O       32.29510000      26.20670000      14.84250000
O       34.85040000      27.27270000      15.38630000
O       33.34830000      32.52460000      17.62560000
O       27.45630000      30.34370000      15.35710000
O       28.10700000      27.78400000      15.85130000
O       31.84190000      30.47130000      16.48380000
O       32.67810000      29.04440000      14.23720000
O       26.61420000      32.35910000      13.50220000
O       28.55360000      34.33740000      13.53990000
O       25.35050000      24.51270000      17.01130000
O       31.36020000      33.85320000      19.26750000
O       25.10810000      26.48960000      18.85070000
O       29.61760000      25.16370000      18.66220000
O       29.23860000      26.72010000      20.90370000
O       29.34100000      31.48800000      16.90950000
O       34.02490000      27.09450000      19.31020000
O       36.89930000      25.32290000      15.51430000
O       25.82280000      34.29380000      19.04080000
O       25.30110000      29.31500000      20.67350000
O       27.09020000      28.40660000      18.47770000
O       28.67410000      30.51020000      19.43820000
O       31.92670000      28.52840000      18.36070000
O       34.77860000      30.67040000      18.91160000
O       35.92430000      28.29720000      17.78790000
O       25.08520000      31.00640000      16.47320000
O       32.15360000      36.30790000      26.36770000
O       27.21870000      27.77060000      24.62980000
O       31.65410000      27.03590000      23.87670000
O       32.75280000      26.03270000      21.54600000
O       29.15950000      35.78410000      30.20410000
O       34.31480000      24.84330000      23.45470000
O       37.48180000      24.65140000      22.81760000
O       25.73310000      36.26530000      28.39330000
O       36.15130000      26.98680000      23.87370000
O       22.57790000      29.48130000      20.99100000
O       26.77270000      31.18370000      23.89790000
O       26.80920000      27.45710000      21.92040000
O       30.74810000      29.56200000      23.36090000
O       30.59810000      29.00910000      20.67460000
O       36.41450000      31.82410000      23.23350000
O       35.58980000      29.34600000      22.48170000
O       27.28590000      34.50900000      21.87920000
O       28.38030000      31.96650000      21.82340000
O       29.97320000      33.08760000      23.91640000
O       33.03870000      33.11660000      21.38780000
O       33.17380000      35.58850000      22.53510000
O       35.60730000      32.77120000      20.63830000
O       35.74110000      33.20540000      29.20100000
O       28.68640000      34.87810000      18.84100000
O       31.33760000      36.48960000      20.17440000
O       32.19450000      32.85580000      28.22090000
O       26.40740000      27.46520000      27.20940000
O       29.11980000      25.93740000      24.89830000
O       30.01920000      26.46170000      27.35600000
O       28.93350000      32.08560000      30.14420000
O       34.53720000      27.52550000      27.92020000
O       40.04240000      23.84920000      25.72500000
O       38.18950000      28.38650000      29.73880000
O       25.53080000      30.72030000      28.96590000
O       28.04920000      31.36130000      27.52450000
O       28.75550000      29.92410000      25.31140000
O       31.32210000      30.79910000      26.87330000
O       32.54200000      26.19320000      26.51900000
O       33.92580000      30.89230000      25.69140000
O       35.89700000      28.92960000      25.96390000
O       25.76050000      33.72040000      24.04160000
O       26.71140000      35.36290000      26.01410000
O       28.81150000      33.67880000      26.28670000
O       30.52430000      34.90740000      27.98760000
O       32.33110000      31.74910000      23.60110000
O       34.15870000      34.18480000      26.92510000
O       35.09580000      34.34430000      24.20030000
O       25.47210000      37.27920000      24.44000000
O       36.73970000      30.49140000      28.28920000
O       28.83020000      36.68300000      21.91880000
O       30.74020000      35.81260000      23.90210000
O       26.40950000      24.29060000      27.50400000
O       28.13560000      25.61380000      29.26030000
O       34.51740000      29.54840000      29.92440000
O       36.74820000      26.19130000      28.91930000
O       30.18240000      28.92210000      28.57370000
O       23.92220000      29.78400000      26.77480000
O       26.13680000      26.14410000      31.18290000
O       31.53850000      27.29290000      30.22340000
O       36.09070000      25.53370000      31.61830000
O       27.50630000      28.73600000      29.49160000
O       30.71920000      30.49950000      31.38120000
O       33.56660000      32.06770000      30.45400000
O       26.50240000      35.05790000      30.67930000
O       29.85040000      34.62520000      32.66240000
O       29.72180000      30.62410000      35.40640000
O       25.84740000      26.31810000      35.68950000
O       30.23180000      26.59770000      32.72650000
O       33.40140000      25.54720000      32.51410000
O       36.13400000      28.02410000      34.55080000
O       33.45020000      28.73500000      35.44540000
O       27.41880000      30.29540000      33.68290000
O       28.73310000      28.69840000      31.98320000
O       32.04760000      30.67290000      34.08720000
O       32.98030000      28.36290000      32.36660000
O       36.19320000      28.35600000      31.88280000
O       28.35800000      29.01820000      37.33630000
O       26.03430000      29.29470000      35.81610000
O       25.58890000      33.93340000      34.37210000
O       27.66730000      32.91790000      32.69870000
O       32.41400000      33.14200000      32.85700000
O       23.58770000      35.15130000      32.49890000
O       27.29540000      36.16310000      33.07450000
O       32.00450000      26.34920000      34.92540000
O       27.39820000      25.17680000      39.46000000
O       27.64230000      38.07750000      29.40160000
O       26.30490000      37.72240000      22.07820000
H       23.91970000      12.33710000      22.57320000
H       22.63180000      12.60420000      21.67840000
H       25.46250000      12.27760000      28.44890000
H       24.86550000      10.90820000      27.94200000
H       21.56510000      21.30380000      11.94410000
H       21.96720000      21.00550000      10.45260000
H       22.76240000      15.02240000      15.91140000
H       21.69690000      15.08080000      17.03990000
H       19.72670000      18.82360000      15.25750000
H       18.37890000      19.73070000      15.33110000
H       22.31310000      17.20670000      14.87900000
H       21.68540000      17.57250000      16.25370000
H       23.53740000      20.52420000      14.37140000
H       22.58290000      19.50920000      15.17640000
H       16.33940000      23.12800000      15.86670000
H       15.08780000      22.95820000      14.96680000
H       16.95300000      23.93620000      12.27680000
H       16.77290000      23.54870000      13.80260000
H       20.14560000      22.80230000      13.54690000
H       18.99560000      23.90230000      13.44450000
H       21.54760000      21.04300000      14.09870000
H       20.08420000      20.60750000      14.02830000
H       24.21440000      24.49920000      13.74210000
H       23.11930000      23.93190000      14.72500000
H       18.72150000      16.04500000      18.71040000
H       18.02730000      17.37990000      18.18260000
H       18.94350000      13.38820000      18.72260000
H       19.92800000      13.95500000      19.80260000
H       22.46110000      16.06650000      19.02250000
H       23.87560000      15.38680000      19.16720000
H       16.16380000      19.71350000      20.37490000
H       15.02110000      20.47570000      19.61410000
H       15.69240000      17.58960000      17.35560000
H       15.96990000      18.73370000      18.39570000
H       19.80360000      20.03050000      19.66790000
H       20.47160000      20.49290000      21.01810000
H       20.49900000      17.15960000      18.19590000
H       21.87860000      17.95980000      18.37270000
H       23.32040000      19.77220000      18.20070000
H       21.82080000      20.00200000      18.54210000
H       13.51330000      23.93280000      16.11000000
H       12.70330000      23.56070000      14.81430000
H       13.92440000      23.38460000      18.48600000
H       13.27460000      24.81320000      18.11100000
H       16.44780000      19.45560000      16.15330000
H       16.39730000      20.81600000      15.30140000
H       18.15410000      23.76230000      19.92250000
H       16.79880000      24.49210000      20.17440000
H       20.39560000      21.46210000      17.87260000
H       19.85850000      20.19400000      17.08420000
H       22.18840000      22.76060000      18.07390000
H       20.91320000      23.37710000      18.87340000
H       17.26230000      25.95650000      13.63800000
H       21.61380000      23.52030000      10.92100000
H       20.66890000      24.23010000      11.91290000
H       13.35530000      26.03650000      15.15170000
H       16.87690000      23.79680000      18.09310000
H       21.35800000      23.92080000      16.47100000
H       23.92290000      21.36740000      12.24040000
H       24.26730000      22.31260000      13.44820000
H       23.23770000      13.34390000      17.14850000
H       26.25180000      17.89660000      15.93470000
H       23.37160000      21.66890000      16.36530000
H       17.07770000      16.36930000      22.08600000
H       15.79800000      17.32130000      22.23770000
H       17.96650000      14.60540000      20.74040000
H       18.52580000      14.85440000      22.15820000
H       20.27330000      16.17950000      22.84220000
H       19.72920000      15.21110000      24.01100000
H       20.93580000      14.25030000      21.72890000
H       21.96580000      14.40250000      20.53360000
H       22.02430000      14.91390000      23.70970000
H       23.16330000      14.39770000      24.67210000
H       14.48490000      18.65460000      20.94490000
H       13.40150000      17.59920000      21.39610000
H       14.72650000      20.49460000      23.78040000
H       13.87000000      19.32960000      23.14630000
H       17.28590000      18.85980000      21.95480000
H       18.25060000      19.90580000      21.26710000
H       16.77670000      20.92160000      22.90570000
H       16.67970000      21.60610000      24.36670000
H       20.26640000      18.29840000      21.58080000
H       21.58410000      18.07840000      22.38370000
H       23.84540000      18.33980000      22.07140000
H       23.36520000      18.63760000      23.52720000
H       10.85280000      23.95740000      23.75990000
H       11.09480000      22.48620000      24.23700000
H       13.08190000      21.39520000      22.54650000
H       12.06710000      22.57830000      22.40710000
H       15.56430000      23.06690000      23.09590000
H       14.12870000      23.26540000      22.55180000
H       15.41500000      22.63090000      19.98760000
H       13.95700000      22.24350000      20.49700000
H       19.19760000      24.27770000      23.48880000
H       20.30660000      23.15780000      23.53880000
H       22.41580000      20.41320000      22.18400000
H       21.52370000      21.52070000      22.82510000
H       24.62330000      22.75300000      22.55750000
H       23.24060000      22.48890000      21.85270000
H       16.25410000      16.33680000      24.25700000
H       17.08340000      15.87540000      25.47050000
H       19.39760000      16.04390000      26.11500000
H       18.99500000      14.56560000      26.23130000
H       20.68110000      16.51970000      27.87980000
H       19.40330000      17.45300000      27.66930000
H       24.04710000      12.80760000      26.49590000
H       22.98670000      13.89350000      26.89230000
H       23.11150000      16.40890000      27.74850000
H       23.61940000      17.38510000      26.64470000
H       15.22120000      17.55000000      25.75610000
H       14.19740000      18.70200000      25.35310000
H       15.17020000      20.64550000      28.12380000
H       15.37340000      19.59250000      26.95740000
H       17.89970000      18.31680000      25.60600000
H       17.78670000      18.06320000      24.07200000
H       19.97930000      18.88990000      24.80870000
H       20.68750000      19.22960000      26.13880000
H       22.97680000      16.61690000      24.61650000
H       22.20800000      17.95350000      25.06690000
H       25.16850000      20.54290000      26.60330000
H       25.66580000      20.89460000      25.13900000
H       11.65590000      23.18730000      28.11940000
H       12.74870000      24.23480000      27.75780000
H       12.29750000      22.07040000      26.21270000
H       12.56150000      20.97110000      25.10060000
H       15.20630000      25.00430000      25.92270000
H       16.19030000      24.90300000      27.19560000
H       16.55390000      21.47290000      26.61190000
H       16.52560000      22.99940000      26.12780000
H       18.53390000      22.43030000      26.60130000
H       19.80360000      23.13400000      27.38960000
H       21.03030000      20.84970000      24.79420000
H       20.40180000      22.13010000      25.40050000
H       23.37410000      22.37870000      26.74940000
H       22.31840000      22.67630000      25.61050000
H       19.23420000      14.13780000      28.93710000
H       19.46410000      12.82620000      28.08270000
H       21.21640000      14.44830000      28.16440000
H       22.49510000      14.84820000      29.07370000
H       14.52170000      17.57910000      27.85600000
H       14.57090000      16.33010000      28.80180000
H       16.86470000      17.38860000      27.82080000
H       17.25450000      18.88000000      27.80660000
H       21.78660000      19.58290000      28.50020000
H       22.99620000      18.51210000      28.42690000
H       13.80440000      21.39020000      30.09730000
H       13.67210000      22.31440000      28.81340000
H       16.88120000      21.83670000      31.32810000
H       15.99720000      21.62880000      30.03680000
H       20.08110000      20.95050000      27.52420000
H       19.67470000      19.84300000      28.57030000
H       11.48510000      26.52040000      18.42700000
H       15.39900000      25.04240000      21.73900000
H       20.02750000      23.84130000      21.16720000
H       14.34400000      24.93480000      23.98400000
H       13.04520000      25.53190000      24.66080000
H       18.70910000      25.87100000      25.04350000
H       21.02420000      25.48100000      23.46530000
H       13.73510000      26.50140000      27.73520000
H       17.68630000      25.68620000      28.86600000
H       21.85080000      23.63030000      27.68780000
H       24.48340000      12.49120000      20.58300000
H       24.77710000      12.82890000      19.04830000
H       23.91690000      16.69510000      20.76310000
H       24.05720000      20.39600000      20.23310000
H       26.37400000      12.35220000      24.09880000
H       25.42030000      17.37390000      24.32530000
H       26.19940000      21.34020000      23.16300000
H       23.62390000      20.54480000      28.18050000
H       25.03280000      13.91040000      29.94110000
H       25.36830000      17.04980000      28.52400000
H       24.05180000      24.68370000      21.45490000
H       23.77300000      24.50470000      25.93470000
H       19.69250000      14.53770000      31.10720000
H       18.54740000      15.56180000      30.68210000
H       23.85820000      15.65330000      30.94860000
H       22.90070000      14.40050000      31.10540000
H       15.04130000      18.34180000      30.25930000
H       15.83400000      19.54190000      30.90970000
H       17.98970000      20.24930000      30.12080000
H       18.46790000      18.74150000      30.26830000
H       22.72620000      19.33910000      30.53690000
H       21.96490000      19.89240000      31.80340000
H       16.30430000      22.86280000      33.09730000
H       17.80580000      22.47300000      33.15180000
H       20.85020000      22.41060000      31.51720000
H       21.37110000      23.27470000      30.30180000
H       24.94410000      22.46460000      30.38970000
H       24.41360000      23.80920000      29.69970000
H       21.63320000      14.22850000      32.88970000
H       21.22020000      12.90530000      32.14270000
H       23.40290000      14.69560000      34.21570000
H       22.09310000      15.00150000      35.07390000
H       18.30740000      17.40440000      31.97300000
H       16.96790000      17.44030000      31.15750000
H       19.98310000      17.60120000      33.45380000
H       18.83570000      18.59540000      33.78650000
H       22.13790000      16.71340000      33.65590000
H       22.20750000      18.10230000      32.86920000
H       22.71270000      18.23650000      36.46750000
H       21.63790000      18.16000000      35.36510000
H       12.53000000      20.26150000      32.08040000
H       13.99460000      19.82910000      31.71160000
H       14.13360000      21.86260000      33.21060000
H       14.90200000      21.81330000      34.58330000
H       17.45070000      20.32380000      33.95710000
H       18.52460000      20.84000000      34.94620000
H       19.12590000      21.02710000      36.99040000
H       18.44700000      22.40290000      36.54150000
H       19.78930000      20.66850000      32.75010000
H       19.84410000      20.30530000      31.23410000
H       23.88810000      23.10960000      33.99450000
H       24.75810000      22.05630000      34.83000000
H       20.68820000      15.09230000      37.04250000
H       21.48970000      16.38940000      36.68090000
H       16.63150000      20.90680000      36.19240000
H       15.36120000      19.99030000      36.22680000
H       21.28680000      21.05620000      37.61970000
H       20.93000000      19.60770000      37.14530000
H       23.56770000      21.69240000      37.21900000
H       23.02700000      22.12470000      38.66450000
H       13.00780000      26.25010000      29.79160000
H       14.64200000      24.31760000      34.09930000
H       22.06630000      23.88270000      32.78050000
H       21.90690000      23.37540000      36.66920000
H       21.72860000      24.05300000      35.23350000
H       24.78910000      21.74050000      32.59300000
H       24.11910000      20.64650000      31.65020000
H       24.95490000      17.91120000      37.19310000
H       25.54080000      21.20330000      36.84300000
H       25.93540000      23.95310000      33.62900000
H       24.32050000      23.91280000      37.61160000
H       22.30180000      27.10990000      12.17590000
H       22.15500000      25.74130000      11.35270000
H       15.86180000      28.88530000      15.57330000
H       14.88870000      27.66620000      15.86620000
H       21.68300000      34.55700000      16.44330000
H       16.79570000      27.05160000      14.68720000
H       19.09130000      28.83570000      15.03390000
H       18.47220000      28.15240000      13.78290000
H       21.38440000      34.22370000      17.98190000
H       21.83500000      27.37510000      15.04300000
H       21.67180000      25.98680000      15.82690000
H       16.89220000      29.90250000      14.00850000
H       15.30390000      30.02340000      13.93160000
H       19.44100000      30.78410000      13.81440000
H       18.90580000      32.19710000      14.30220000
H       22.28580000      29.01460000      13.79810000
H       20.78300000      28.53780000      13.58520000
H       24.01480000      30.42620000      15.12600000
H       22.58240000      30.94780000      14.99760000
H       22.65240000      32.62890000      12.60740000
H       21.24490000      32.67990000      13.29440000
H       23.85950000      34.63230000      15.39800000
H       22.68490000      34.33840000      14.40010000
H       12.85510000      26.90600000      16.34680000
H       21.65380000      34.97490000      20.17530000
H       14.75030000      27.89860000      19.50500000
H       13.76460000      28.32690000      20.65890000
H       22.66550000      33.74950000      19.86780000
H       15.62650000      24.37440000      17.39780000
H       17.58940000      25.75350000      17.83850000
H       18.52250000      26.99460000      17.63890000
H       20.84910000      24.18900000      14.95700000
H       21.83690000      26.88180000      19.46740000
H       22.39690000      26.06830000      20.66920000
H       13.34830000      28.45660000      14.21140000
H       13.02320000      29.22640000      12.89530000
H       15.31940000      30.28650000      20.73750000
H       16.31300000      29.75490000      19.64300000
H       16.88850000      27.62870000      18.74520000
H       15.98450000      28.31920000      17.69850000
H       19.63400000      29.04300000      19.75010000
H       19.86290000      30.50020000      19.23070000
H       20.25150000      27.79910000      16.45850000
H       19.53780000      28.86470000      17.41590000
H       22.96990000      29.48430000      18.18870000
H       22.31200000      30.77200000      17.52480000
H       17.62500000      33.19920000      15.82000000
H       16.85500000      32.10620000      14.94240000
H       19.07280000      34.07490000      17.27780000
H       17.81880000      33.66650000      18.17190000
H       20.64140000      31.52900000      15.52310000
H       21.25370000      32.52990000      16.55220000
H       24.19490000      26.07580000      12.18230000
H       26.68580000      33.89190000      16.06130000
H       25.82910000      27.69330000      12.09590000
H       24.09290000      30.68730000      12.86730000
H       24.71080000      23.77710000      16.85330000
H       22.52320000      27.49250000      17.32200000
H       24.39730000      30.83300000      17.17950000
H       10.93440000      26.33020000      25.10890000
H       11.12360000      26.36090000      23.55770000
H       12.92950000      26.95010000      18.91020000
H       22.68710000      36.96470000      27.65580000
H       15.30820000      28.42870000      24.68090000
H       14.23070000      27.34890000      24.36870000
H       22.20630000      37.71560000      28.90590000
H       15.06010000      26.28770000      20.78510000
H       17.73370000      26.56220000      23.27530000
H       16.91600000      26.69550000      21.94120000
H       19.14190000      36.88070000      27.17200000
H       20.38190000      24.95280000      20.13570000
H       24.30610000      26.33370000      24.40480000
H       22.97870000      26.74250000      23.68840000
H       14.10850000      29.23670000      22.73010000
H       13.67070000      30.62190000      22.12520000
H       15.67960000      31.29660000      25.02760000
H       16.79060000      30.63320000      24.07440000
H       16.97280000      30.09470000      21.80910000
H       17.34350000      28.85660000      22.72510000
H       19.00280000      30.33060000      22.78470000
H       20.28610000      29.58080000      22.39670000
H       20.54590000      27.52000000      21.13020000
H       19.08510000      27.73290000      21.70080000
H       22.89930000      32.04650000      23.24460000
H       23.89510000      30.82800000      23.18610000
H       14.17030000      33.05070000      22.37110000
H       13.67040000      32.37160000      23.68210000
H       16.30540000      34.14240000      22.87710000
H       15.87210000      35.30950000      21.96990000
H       16.54810000      33.57940000      20.51730000
H       16.87270000      32.16810000      19.94400000
H       18.64590000      33.93110000      22.55700000
H       18.69990000      33.74020000      21.00890000
H       20.32660000      31.67440000      21.25590000
H       20.83360000      32.71880000      20.17260000
H       24.31100000      34.26810000      23.14850000
H       22.98610000      35.11200000      23.20460000
H       18.10450000      35.78310000      21.65980000
H       17.83600000      37.22260000      21.11500000
H       21.71440000      36.86940000      21.57470000
H       20.51190000      35.82970000      21.64730000
H       10.08800000      27.70570000      27.01970000
H       11.43130000      28.27080000      26.41220000
H       20.66390000      37.01290000      27.47600000
H       15.93090000      26.76000000      28.46830000
H       15.93140000      27.77990000      27.26070000
H       21.66660000      33.74580000      29.08430000
H       17.34090000      25.10660000      25.08740000
H       19.66460000      26.83740000      26.94340000
H       19.74890000      28.00300000      25.87210000
H       20.93960000      26.51560000      24.63690000
H       22.18640000      32.56470000      28.17260000
H       23.54690000      26.55410000      26.92280000
H       23.52150000      26.72080000      28.47050000
H       13.34110000      29.00660000      25.72060000
H       13.03830000      29.47010000      27.22000000
H       14.54580000      31.21860000      28.52590000
H       15.85830000      31.84890000      27.93170000
H       17.26430000      29.15490000      25.78890000
H       17.61700000      27.65610000      25.65950000
H       17.53430000      31.36020000      26.60770000
H       17.81720000      30.74570000      28.03970000
H       20.19870000      30.20830000      26.09930000
H       19.78520000      29.85740000      24.63520000
H       21.23430000      30.47540000      27.84280000
H       22.45930000      30.68150000      26.96160000
H       13.34780000      31.15430000      25.71170000
H       14.22910000      32.18770000      26.44530000
H       17.33580000      35.36570000      26.93270000
H       16.67610000      35.39020000      25.53340000
H       18.30500000      33.86010000      24.78390000
H       17.31200000      32.71690000      24.35690000
H       20.33410000      33.72070000      25.38790000
H       19.79130000      34.83260000      26.36450000
H       20.88080000      31.74600000      23.91380000
H       21.51680000      31.90060000      25.33420000
H       24.22960000      35.70880000      27.46750000
H       23.04260000      34.69020000      27.61570000
H       18.57120000      36.52540000      24.96990000
H       18.72790000      36.97230000      23.49980000
H       21.02770000      36.21480000      24.61020000
H       22.34360000      35.85070000      25.44100000
H       17.93670000      33.40660000      27.98640000
H       12.17830000      26.49400000      27.48450000
H       17.15170000      34.19340000      29.07450000
H       16.46060000      25.20380000      29.75490000
H       15.17840000      33.95880000      30.78910000
H       21.36000000      24.78830000      28.63620000
H       14.52720000      28.84030000      28.82640000
H       13.69280000      29.51170000      29.98160000
H       17.68420000      29.86390000      30.02450000
H       17.01450000      28.84770000      29.03580000
H       22.05180000      29.14220000      29.28920000
H       21.44240000      28.26090000      28.18920000
H       15.35630000      32.96480000      29.58060000
H       26.21550000      37.11400000      28.53140000
H       22.66390000      30.26600000      21.58850000
H       24.34570000      35.69780000      21.53710000
H       25.43790000      31.63410000      29.33920000
H       24.41060000      28.58490000      23.85650000
H       26.00050000      34.20510000      24.87060000
H       25.03490000      37.95390000      25.01240000
H       26.05750000      23.69440000      28.20460000
H       23.72230000      28.88650000      27.15960000
H       14.89890000      25.95890000      31.09310000
H       16.37400000      26.38150000      31.58240000
H       18.93420000      27.59830000      28.95120000
H       19.86590000      26.41120000      29.35180000
H       22.95730000      25.71240000      30.29460000
H       24.56610000      25.86660000      30.37520000
H       17.25790000      30.81070000      32.19490000
H       16.69870000      31.87620000      31.11950000
H       20.28130000      28.68780000      30.62290000
H       19.34490000      28.02420000      31.70700000
H       23.76060000      28.82920000      30.81610000
H       22.94830000      30.15000000      30.87120000
H       19.96820000      33.88710000      30.40310000
H       19.56990000      34.75100000      29.13750000
H       24.46990000      32.19700000      31.18110000
H       23.78320000      32.95730000      29.93780000
H       21.65210000      32.23620000      36.86010000
H       22.73900000      31.84260000      35.78120000
H       13.02850000      27.22690000      31.03080000
H       13.24890000      27.54090000      34.87470000
H       14.35420000      26.64180000      34.19340000
H       15.37410000      25.20750000      33.06120000
H       18.41230000      25.67350000      35.41230000
H       17.74260000      27.09940000      35.38260000
H       20.11380000      27.23390000      35.11050000
H       21.27130000      27.51520000      36.13630000
H       22.76330000      25.06080000      33.62340000
H       22.45580000      27.11620000      34.47310000
H       23.93450000      26.68770000      34.88060000
H       13.65550000      28.56560000      32.75890000
H       12.51310000      29.47460000      32.21160000
H       17.96540000      26.88620000      33.14840000
H       17.51920000      28.31340000      32.75960000
H       18.59230000      30.06840000      33.93640000
H       17.15730000      29.64210000      34.46910000
H       20.91500000      26.79070000      31.04880000
H       20.85480000      25.17750000      31.05220000
H       20.70460000      30.86260000      34.89480000
H       20.62140000      29.31540000      34.63470000
H       19.85030000      32.94580000      32.31990000
H       18.80560000      32.10260000      31.43280000
H       21.44730000      30.45150000      32.64760000
H       21.12210000      31.42220000      31.50250000
H       21.86810000      32.64640000      33.07180000
H       21.50910000      33.29760000      34.41660000
H       21.22980000      36.08990000      30.30020000
H       22.43110000      36.54750000      31.19210000
H       19.79020000      24.15980000      36.42340000
H       18.61900000      24.47830000      37.42310000
H       15.45810000      28.18390000      35.26710000
H       16.07970000      28.75950000      36.59500000
H       22.87180000      26.58980000      37.87000000
H       21.90310000      25.63380000      37.08470000
H       26.36150000      25.14730000      32.61660000
H       24.92980000      30.88930000      35.63010000
H       24.11910000      27.73270000      32.95000000
H       24.46630000      31.16610000      33.43950000
H       25.78330000      28.34720000      35.70590000
H       26.78540000      29.28080000      36.46660000
H       23.82660000      34.61100000      31.72050000
H       22.69340000      37.41890000      23.45550000
H       22.51340000      38.75600000      22.69240000
H       24.47910000      39.89240000      26.47920000
H       23.44340000      38.77400000      26.83230000
H       28.51250000      14.44480000      18.61970000
H       27.52700000      10.70120000      20.43830000
H       26.59370000      11.97580000      20.33480000
H       27.72960000      10.96640000      25.71350000
H       26.54890000      11.70130000      26.45380000
H       32.59800000      14.55560000      24.24830000
H       27.70540000      24.29890000      12.09020000
H       27.33300000      24.32500000      10.57700000
H       25.37530000      13.42910000      16.24000000
H       26.70170000      14.22850000      16.28310000
H       35.46480000      20.63150000      19.10720000
H       24.71900000      15.28030000      15.07480000
H       24.41260000      16.71920000      15.50460000
H       28.17700000      17.86010000      14.27850000
H       27.49010000      19.25180000      14.54230000
H       29.60070000      16.14890000      13.24820000
H       30.34360000      17.40580000      13.80630000
H       32.20180000      18.45820000      15.56490000
H       30.93020000      19.24170000      15.05030000
H       36.17150000      21.79770000      18.33100000
H       26.11490000      21.10700000      13.39210000
H       27.66790000      21.32170000      13.15870000
H       29.45720000      20.91990000      15.54370000
H       30.52840000      21.60800000      14.63930000
H       31.12360000      23.50180000      15.50570000
H       30.29090000      23.94640000      14.20880000
H       33.72900000      20.78740000      15.77310000
H       33.17120000      21.93230000      14.82930000
H       35.25360000      23.66130000      17.63590000
H       35.12060000      22.72100000      16.38770000
H       23.64720000      11.82460000      17.20330000
H       35.31450000      22.74340000      21.79620000
H       25.97030000      16.71220000      19.41780000
H       26.55300000      15.64390000      18.45390000
H       28.64530000      15.46800000      17.43010000
H       36.05810000      22.46390000      20.44110000
H       30.89020000      16.23490000      19.52790000
H       30.03720000      17.07060000      18.45330000
H       25.64040000      17.19080000      17.25640000
H       25.65580000      20.24520000      18.65470000
H       25.60280000      19.37980000      17.31030000
H       30.24530000      17.43590000      16.23900000
H       28.73680000      17.66710000      16.44040000
H       30.79700000      20.54740000      18.90160000
H       29.88730000      21.68490000      19.39690000
H       34.58800000      18.53840000      15.95040000
H       33.99010000      19.02740000      17.32650000
H       33.26330000      19.29540000      19.37600000
H       34.63350000      18.55210000      19.57570000
H       24.53350000      21.55570000      17.37790000
H       32.42680000      22.64220000      16.87410000
H       27.79000000      22.80570000      17.58440000
H       27.25960000      23.18790000      19.08180000
H       27.43650000      21.58920000      15.46940000
H       27.25030000      20.95510000      16.87490000
H       31.03320000      24.30640000      19.50330000
H       32.52740000      23.89700000      19.43290000
H       31.09810000      22.46270000      17.68420000
H       25.59570000      25.26780000      12.04110000
H       28.99120000      25.79010000      13.16540000
H       32.11440000      25.30430000      14.50420000
H       26.15040000      24.08380000      17.44420000
H       29.31790000      25.75660000      19.39540000
H       34.86050000      24.06400000      19.79860000
H       36.55930000      24.52730000      16.00420000
H       36.41190000      22.68620000      29.43290000
H       37.01150000      21.41410000      28.76780000
H       26.13960000      14.19530000      22.40100000
H       25.77140000      14.28110000      20.89550000
H       28.76870000      12.91160000      20.61320000
H       29.16520000      14.17140000      21.43370000
H       30.23360000      14.88600000      23.41210000
H       29.09290000      15.91180000      23.16300000
H       31.16520000      14.22130000      20.18370000
H       32.53920000      14.91580000      20.57610000
H       33.08180000      15.89480000      22.60070000
H       34.31710000      15.00840000      22.61340000
H       25.12850000      16.37790000      21.65270000
H       26.42200000      19.19980000      22.89820000
H       26.12900000      19.94890000      21.55650000
H       28.62210000      16.80610000      20.21740000
H       27.46630000      16.04190000      20.99600000
H       29.94410000      19.13540000      22.71070000
H       31.07230000      20.25020000      23.02950000
H       31.18730000      18.41140000      19.68970000
H       31.37560000      19.49020000      20.80300000
H       35.52920000      18.72200000      23.90930000
H       35.76910000      18.59390000      22.34960000
H       36.20400000      17.05800000      20.59870000
H       34.80960000      16.77700000      21.28280000
H       34.70900000      20.81690000      27.62910000
H       34.13520000      21.91090000      28.61220000
H       25.15400000      21.50660000      20.48960000
H       27.65330000      22.30170000      20.88340000
H       26.69080000      23.48250000      21.24430000
H       29.68480000      21.18900000      21.57880000
H       29.76560000      22.77320000      21.46830000
H       30.54340000      24.32350000      23.16550000
H       29.01350000      24.46300000      22.77680000
H       35.17190000      20.73630000      23.08220000
H       33.82350000      21.49940000      23.37000000
H       36.84040000      23.72970000      24.15100000
H       35.70770000      22.70620000      24.41760000
H       37.79310000      19.82940000      23.20570000
H       38.90260000      20.97640000      23.15960000
H       40.56250000      23.02810000      22.77840000
H       39.84790000      23.25690000      24.16360000
H       26.56010000      12.03060000      22.57710000
H       27.94360000      14.81140000      27.57760000
H       27.31260000      15.74790000      28.70390000
H       28.67540000      14.52040000      24.92930000
H       28.19830000      13.35180000      25.86200000
H       31.38280000      15.60600000      27.25850000
H       30.08350000      15.11310000      26.44670000
H       28.48330000      20.68320000      28.39270000
H       31.59700000      15.54990000      24.90840000
H       33.97240000      15.48850000      27.38650000
H       35.41960000      16.07320000      27.38770000
H       25.91750000      18.67130000      25.02890000
H       29.46660000      20.23650000      29.54220000
H       27.33300000      20.10320000      26.46340000
H       28.73040000      19.32130000      26.80330000
H       28.09030000      17.83590000      23.73730000
H       28.36520000      17.64600000      22.22740000
H       31.56240000      19.16960000      26.62080000
H       32.76640000      20.13900000      27.01840000
H       33.70570000      18.60970000      25.64330000
H       34.54620000      17.27670000      25.80920000
H       35.52720000      19.11240000      26.59450000
H       36.76470000      20.06120000      26.77320000
H       34.74520000      14.64740000      25.31920000
H       34.97680000      13.26430000      24.61980000
H       26.43240000      22.58560000      24.14950000
H       24.48430000      21.86320000      28.44130000
H       28.34040000      23.05880000      25.29250000
H       27.14700000      23.79210000      26.04690000
H       30.19640000      21.72540000      24.91810000
H       29.20870000      21.31600000      26.07700000
H       31.07280000      22.68620000      26.76570000
H       32.58560000      22.52690000      27.20400000
H       32.23460000      20.77630000      24.91510000
H       32.08450000      22.24970000      24.23570000
H       37.53230000      23.53950000      27.75550000
H       36.92560000      24.02840000      26.40630000
H       37.42200000      21.77060000      25.57240000
H       38.27160000      20.54380000      25.13540000
H       39.68060000      22.02960000      28.44450000
H       39.30200000      21.40360000      27.07830000
H       26.50780000      13.91220000      29.32710000
H       29.96020000      13.51060000      30.34480000
H       29.34670000      14.57150000      29.36180000
H       32.64500000      16.22870000      29.29330000
H       31.91600000      14.85810000      29.13370000
H       25.83400000      17.08960000      30.01570000
H       36.08510000      17.10610000      29.42330000
H       30.12080000      18.30210000      28.19210000
H       30.27880000      17.36490000      26.91540000
H       33.07870000      18.06880000      31.29680000
H       32.02480000      16.89660000      31.39920000
H       36.36510000      18.01930000      28.18650000
H       24.18500000      26.15580000      22.04260000
H       26.73580000      25.71430000      22.21750000
H       32.34120000      25.27860000      21.01570000
H       38.34980000      24.17860000      22.78400000
H       36.92380000      24.23760000      22.10730000
H       28.59270000      25.10050000      24.95800000
H       31.95760000      24.02560000      25.32890000
H       40.30210000      23.15140000      26.37890000
H       26.98330000      24.93080000      28.00300000
H       28.87480000      25.92720000      28.68450000
H       36.54100000      25.70430000      29.75370000
H       37.04090000      25.50920000      28.24390000
H       27.48980000      13.03010000      32.53620000
H       26.28180000      13.02870000      31.52370000
H       30.37160000      15.34770000      31.22640000
H       29.63590000      16.51040000      31.98160000
H       26.41380000      20.64240000      31.62770000
H       27.68920000      20.53330000      30.67310000
H       29.69520000      18.44660000      30.72820000
H       31.16710000      18.42030000      30.20310000
H       34.40420000      19.46910000      32.90820000
H       32.83430000      19.44010000      33.01030000
H       28.08190000      23.06230000      31.15730000
H       28.78400000      22.38150000      29.93670000
H       30.30890000      23.28330000      31.19230000
H       30.72130000      23.80390000      32.54950000
H       34.28490000      22.78560000      30.66550000
H       34.03500000      23.86460000      29.55180000
H       33.36200000      21.89170000      35.76750000
H       25.30780000      13.72540000      35.12980000
H       25.66230000      13.76760000      33.58760000
H       25.68030000      15.99520000      34.41790000
H       26.69430000      17.23420000      34.49790000
H       29.67720000      14.10320000      32.74520000
H       29.76510000      12.64230000      33.30070000
H       32.33090000      20.72660000      35.56070000
H       24.09690000      17.97360000      31.67890000
H       25.10400000      17.12640000      32.54200000
H       27.87290000      21.11490000      36.42540000
H       28.72010000      20.94820000      35.09250000
H       28.54300000      18.05940000      33.10830000
H       27.91890000      18.68140000      31.84080000
H       31.21500000      18.80560000      34.40870000
H       30.72420000      20.20260000      33.83800000
H       31.61720000      16.48440000      35.17100000
H       30.86830000      16.43320000      33.78360000
H       29.87740000      21.68180000      36.86640000
H       27.44240000      22.13560000      38.34820000
H       26.37020000      22.97350000      37.55320000
H       28.52470000      21.00070000      32.76080000
H       29.24420000      22.27270000      33.39170000
H       30.89350000      25.29280000      35.86670000
H       30.32170000      23.95980000      36.59020000
H       33.48520000      21.18540000      32.01530000
H       32.55780000      22.48370000      31.95040000
H       34.18840000      22.63610000      33.65540000
H       35.12420000      23.47110000      34.60630000
H       36.03760000      19.65580000      34.74220000
H       35.44970000      21.02010000      34.25110000
H       24.98870000      17.75430000      35.62070000
H       31.39740000      22.00650000      37.03260000
H       28.33910000      18.87650000      35.42400000
H       29.11760000      17.53140000      35.14810000
H       24.67310000      19.99630000      36.27350000
H       29.59760000      22.55140000      38.77890000
H       29.12480000      22.15590000      40.23260000
H       28.18470000      24.32890000      33.59720000
H       32.66620000      25.07020000      32.08550000
H       32.67330000      25.88560000      34.37140000
H       28.89120000      25.85290000      36.82070000
H       28.06170000      27.97040000      12.43320000
H       28.88560000      27.92090000      13.74160000
H       28.58450000      34.55370000      17.15750000
H       28.85090000      33.17230000      16.50380000
H       26.08910000      25.23160000      15.63220000
H       26.00440000      25.89240000      14.18980000
H       25.85890000      33.31320000      14.91210000
H       28.08450000      24.99290000      14.12170000
H       30.94850000      27.45920000      17.34460000
H       30.15080000      26.10690000      17.42270000
H       32.80170000      31.91250000      17.07430000
H       31.62390000      26.32940000      15.56850000
H       35.56230000      26.59020000      15.29630000
H       34.01130000      26.75640000      15.31160000
H       32.69480000      33.08360000      18.11430000
H       25.83160000      29.24860000      11.89300000
H       26.59210000      30.42940000      15.84180000
H       27.68690000      29.37530000      15.38990000
H       28.98830000      27.41450000      16.15650000
H       27.55470000      27.01510000      15.53100000
H       32.04150000      30.02420000      15.61890000
H       30.90820000      30.81750000      16.46760000
H       33.61720000      28.84230000      14.42880000
H       32.29530000      28.14550000      14.14430000
H       31.83600000      33.44670000      20.03480000
H       25.31970000      31.49280000      12.39030000
H       31.43590000      34.82620000      19.46160000
H       27.03990000      31.59440000      13.95840000
H       27.34700000      32.98850000      13.28320000
H       28.64210000      34.36920000      14.52810000
H       29.44430000      34.47100000      13.17750000
H       28.63520000      31.02980000      16.36670000
H       24.83150000      26.14160000      19.74400000
H       25.13080000      25.71700000      18.22050000
H       29.15710000      31.21520000      17.84930000
H       28.85130000      24.55250000      18.45390000
H       29.58340000      26.02080000      21.51230000
H       28.34990000      27.00720000      21.25860000
H       25.59490000      34.32720000      18.09370000
H       34.27630000      25.32940000      19.03410000
H       34.83450000      27.48160000      18.87060000
H       33.27390000      27.57550000      18.86610000
H       25.30160000      33.53350000      19.41160000
H       37.52140000      25.74520000      16.13130000
H       25.22340000      31.98460000      16.42160000
H       23.70240000      27.36320000      18.39370000
H       25.57820000      29.33190000      19.73970000
H       24.30560000      29.32060000      20.67630000
H       27.38530000      28.25310000      17.55050000
H       26.47960000      27.65240000      18.67730000
H       29.42670000      30.00570000      19.85700000
H       28.02930000      29.80020000      19.19020000
H       31.94440000      29.31310000      17.73850000
H       31.49420000      28.81630000      19.20950000
H       34.09340000      30.11160000      19.32210000
H       34.25400000      31.38840000      18.42520000
H       35.63700000      29.22670000      17.94790000
H       35.51060000      28.02700000      16.92730000
H       31.54040000      35.86800000      27.03510000
H       32.22720000      37.23620000      26.64590000
H       27.91650000      27.05320000      24.65400000
H       26.76650000      27.68370000      25.50950000
H       28.30660000      35.28840000      30.21220000
H       29.66750000      35.45120000      29.41150000
H       26.70810000      24.69290000      23.41570000
H       30.83310000      26.52030000      24.03780000
H       32.02880000      26.68210000      23.02360000
H       33.26230000      26.55740000      20.88350000
H       33.91800000      25.27570000      22.65160000
H       34.85380000      25.55430000      23.86420000
H       25.89790000      35.78950000      29.25420000
H       36.38550000      27.47100000      24.69570000
H       36.86270000      26.35630000      23.62030000
H       22.03100000      29.80430000      20.24950000
H       36.27820000      32.46650000      28.84230000
H       26.08520000      30.46700000      23.91090000
H       27.51150000      30.84630000      24.47140000
H       26.78670000      27.74340000      22.86580000
H       26.20000000      28.07700000      21.42650000
H       31.44010000      30.26970000      23.45750000
H       31.17190000      28.69180000      23.59430000
H       30.14050000      28.12610000      20.79730000
H       30.71550000      29.34160000      21.60750000
H       37.36240000      31.76470000      23.44030000
H       36.11420000      30.88410000      23.07020000
H       35.79530000      28.47410000      22.90760000
H       35.71220000      29.20040000      21.52850000
H       35.38520000      33.68090000      28.41630000
H       23.99370000      32.15170000      21.01620000
H       23.71140000      31.69760000      19.53230000
H       26.77530000      34.29460000      22.70260000
H       27.69400000      33.63500000      21.65530000
H       28.42120000      31.44780000      20.98070000
H       27.70920000      31.53150000      22.41100000
H       29.48220000      32.72560000      23.13780000
H       30.84810000      32.61050000      23.91810000
H       33.97840000      32.99360000      21.05150000
H       33.05520000      34.04210000      21.76840000
H       32.36780000      35.69040000      23.10230000
H       33.89640000      35.30350000      23.14880000
H       35.52460000      31.96260000      20.08260000
H       36.02600000      32.47930000      21.47870000
H       25.25180000      35.66350000      20.20040000
H       31.82270000      32.03840000      27.74550000
H       29.40070000      34.27940000      19.15150000
H       27.83160000      34.52190000      19.16780000
H       30.45880000      36.58030000      20.60650000
H       31.98640000      36.47530000      20.90380000
H       32.55400000      32.55910000      29.09690000
H       25.12430000      25.09920000      26.44580000
H       26.87250000      27.77770000      28.01970000
H       25.46130000      27.45030000      27.44460000
H       29.40320000      26.12110000      25.84290000
H       28.22450000      32.41070000      30.73530000
H       30.98950000      26.28080000      27.16540000
H       30.01420000      27.42380000      27.60440000
H       28.53560000      31.81790000      29.28460000
H       32.87200000      24.29630000      24.07490000
H       34.34080000      28.20130000      28.61050000
H       35.26570000      26.96400000      28.30330000
H       24.79480000      30.25270000      29.46120000
H       39.21360000      24.19990000      26.12280000
H       39.14560000      28.20950000      29.68410000
H       37.74510000      27.56260000      29.38790000
H       24.36580000      29.59920000      25.06990000
H       35.92280000      30.19300000      28.76060000
H       27.12270000      31.07430000      27.64380000
H       28.44020000      30.75920000      26.83560000
H       28.26550000      29.08740000      25.08250000
H       29.55870000      29.90810000      24.72960000
H       30.95910000      30.06220000      27.42480000
H       32.18150000      30.51920000      26.48920000
H       33.24690000      26.68990000      27.00370000
H       32.48330000      26.56170000      25.61090000
H       34.65610000      30.21510000      25.67250000
H       34.29700000      31.66630000      26.15510000
H       36.46490000      29.45450000      26.57260000
H       35.37580000      28.37970000      26.61430000
H       26.06090000      32.77820000      24.12650000
H       37.44290000      29.96910000      28.73880000
H       26.43240000      35.59540000      26.93880000
H       27.55630000      34.84570000      26.10440000
H       28.46940000      32.85770000      26.73270000
H       29.21610000      33.37540000      25.42610000
H       31.13410000      34.13800000      28.20950000
H       29.87490000      34.48280000      27.35390000
H       33.05680000      31.55620000      24.24240000
H       32.72280000      32.17920000      22.78710000
H       33.42170000      33.65800000      27.35440000
H       33.72490000      35.05250000      26.76550000
H       35.50550000      33.51040000      23.88840000
H       34.81040000      34.17110000      25.12540000
H       26.02430000      36.70120000      25.02140000
H       28.37320000      35.79040000      21.87280000
H       29.42510000      36.61240000      22.69860000
H       31.07380000      36.03690000      24.80120000
H       30.44330000      34.86710000      23.93570000
H       34.11600000      30.41220000      30.21090000
H       35.08330000      29.22850000      30.66700000
H       28.43380000      24.76100000      29.66360000
H       29.24540000      29.05780000      28.85610000
H       31.88670000      24.30920000      29.98450000
H       32.10890000      24.34850000      28.43760000
H       30.62050000      28.35950000      29.27440000
H       24.57920000      30.19020000      27.38900000
H       26.87270000      26.24850000      30.53190000
H       25.88900000      27.03640000      31.53100000
H       31.83470000      26.50090000      29.70630000
H       31.07010000      26.93310000      31.01050000
H       36.13160000      26.52070000      31.70500000
H       35.12540000      25.34480000      31.71530000
H       27.81800000      28.61740000      30.42590000
H       26.94510000      29.54390000      29.47820000
H       30.11310000      31.15800000      30.92560000
H       31.30190000      30.17530000      30.67400000
H       34.37630000      32.56100000      30.13850000
H       33.25550000      32.48580000      31.29370000
H       26.61040000      35.47930000      31.57320000
H       26.00800000      34.22070000      30.80240000
H       29.81470000      35.02170000      31.75370000
H       30.71890000      34.17010000      32.73090000
H       29.45100000      30.03580000      36.14710000
H       28.94170000      30.61420000      34.80530000
H       26.11100000      25.83200000      34.86150000
H       26.70480000      26.38390000      36.20560000
H       24.86400000      32.41950000      35.15050000
H       29.44470000      24.33730000      34.58020000
H       32.99350000      29.45450000      34.91760000
H       29.75690000      25.75700000      32.94610000
H       30.84750000      26.72560000      33.49160000
H       33.20670000      26.50890000      32.36400000
H       33.47310000      29.06610000      36.35940000
H       36.18890000      27.05100000      34.68030000
H       35.25140000      28.28330000      34.90260000
H       37.18740000      24.73820000      34.65890000
H       36.34770000      25.12430000      33.40220000
H       28.38200000      28.00580000      37.33170000
H       24.77390000      29.13110000      32.51200000
H       28.43400000      29.28390000      38.26900000
H       27.84820000      29.60150000      33.09970000
H       26.91350000      29.82580000      34.40140000
H       29.18890000      27.87600000      32.32380000
H       29.49470000      29.30760000      31.75710000
H       31.82950000      30.23410000      33.23700000
H       31.18330000      30.66590000      34.60260000
H       32.88440000      28.37370000      31.39000000
H       33.86700000      28.73280000      32.53330000
H       37.07040000      28.53680000      31.48240000
H       36.29190000      28.35620000      32.88350000
H       25.85320000      30.91530000      32.80920000
H       26.28190000      33.61050000      33.74220000
H       24.92120000      34.37300000      33.79430000
H       28.49010000      33.46810000      32.79170000
H       27.83450000      32.06910000      33.16140000
H       32.99110000      33.66500000      33.44070000
H       32.25010000      32.28990000      33.35520000
H       22.79000000      34.69370000      32.86910000
H       32.46140000      27.18470000      35.19770000
H       28.21560000      35.86480000      33.22210000
H       26.81180000      35.86690000      33.86910000
H       27.90840000      25.95300000      38.06940000
H       25.26180000      24.99410000      36.92550000
H       26.51260000      24.87040000      39.17760000
H       27.93170000      24.36180000      39.59730000
H       28.27290000      37.37580000      29.70010000
H       28.19650000      38.81100000      29.08910000
H       25.99710000      37.60810000      23.06100000
H       27.27300000      37.46940000      22.02540000
H       25.64080000      37.01450000      21.44960000
