412
Lattice="35.0 0.0 0.0 0.0 35.0 0.0 0.0 0.0 35.0" Properties=species:S:1:pos:R:3 pbc="T T T"
O       15.64490000      10.37940000      13.12090000
O       11.96050000      15.65290000      10.41000000
O       14.69120000      12.80510000      11.83750000
O       16.48180000      16.10580000      12.23080000
O       13.86660000      10.31460000      15.45800000
O       11.00450000      13.75960000      12.83850000
O       13.82250000      13.94120000      14.18350000
O       14.21630000      17.10120000      11.29450000
O       17.39450000      14.07190000      13.89080000
O       10.05380000      13.18820000      15.72370000
O       15.86240000      13.04230000      15.95880000
O       11.08680000      16.30820000      13.76720000
O       14.92380000      16.25620000      15.95120000
O       12.33470000      11.65930000      19.87580000
O       12.30080000      12.28040000      17.10910000
O       17.91690000      12.38960000      19.55420000
O        9.93664000      15.81390000      16.20340000
O       11.54250000      16.46930000      18.41090000
O       13.60810000      14.61220000      17.68340000
O       15.71680000      14.75180000      19.75960000
O       17.40440000      14.66670000      17.52900000
O       14.50940000       9.74542000      19.49650000
O       16.48410000      11.06960000      21.66970000
O       10.88390000      13.33100000      21.82900000
O       13.19850000      14.28470000      23.17210000
O       14.41150000      12.79070000      21.22410000
O       17.17180000      14.31040000      24.64990000
O       14.58440000      15.03670000      25.41180000
O       14.67040000      17.23500000      19.72950000
O       15.26500000      17.76900000      26.09460000
O       17.14280000      14.95540000      21.97160000
O       17.96240000      11.82520000      24.02280000
O       17.02510000      18.24230000      20.60880000
O       12.24270000      20.89410000      12.23510000
O       14.24480000      24.19070000      12.75510000
O       15.71650000      18.85690000       9.76207000
O       13.75780000      22.40990000      10.43710000
O       16.54280000      22.61620000      12.96570000
O       10.89230000      18.32380000      11.79650000
O       13.60260000      17.71070000      13.86500000
O       10.04670000      22.62740000      12.85520000
O       13.58650000      21.25540000      14.71070000
O       16.16430000      21.28560000      10.58360000
O       15.52470000      25.71470000      14.83240000
O       17.88690000      18.34890000      13.24010000
O       11.72330000      18.77720000      15.66630000
O       15.67950000      19.40110000      14.58850000
O       11.92130000      24.11310000      14.30050000
O       14.54910000      23.51200000      16.07150000
O        9.11593000      18.58020000      16.85300000
O       11.29340000      19.47560000      18.85950000
O       14.17590000      18.49560000      17.24610000
O       15.98440000      20.60190000      19.39170000
O        9.50431000      20.87750000      15.07940000
O       13.37380000      23.27650000      20.68690000
O       11.63490000      21.79110000      16.69750000
O       16.57450000      25.76530000      18.61890000
O       13.85240000      24.84660000      18.34990000
O       17.69210000      16.74880000      15.76030000
O       10.50920000      16.06450000      20.87690000
O       12.99430000      16.60890000      21.83140000
O       12.89300000      19.19670000      22.52540000
O       14.62360000      19.99880000      24.41730000
O       10.17430000      18.90610000      21.70910000
O       13.42370000      20.64410000      20.23290000
O       14.17800000      22.65220000      24.85330000
O       15.04270000      24.28530000      22.78000000
O       17.71390000      24.25390000      22.55230000
O       19.75090000      11.63270000      11.73920000
O       17.44620000      13.12420000      11.25530000
O       18.95580000      15.34140000      10.38380000
O       20.88770000      13.54550000       9.54453000
O       22.98110000      14.56780000      11.20080000
O       18.26190000       9.96640000      13.52760000
O       25.05670000      14.38470000      13.00450000
O       22.23930000      10.29050000      15.99510000
O       21.32260000      13.43410000      13.12880000
O       18.27080000      17.76980000       9.23322000
O       19.64330000      11.02040000      15.69900000
O       23.34380000      12.72000000      14.83810000
O       19.66390000      15.58740000      13.27760000
O       21.19710000      15.93690000      16.58160000
O       15.85890000      10.53290000      17.26750000
O       18.62940000      10.27260000      18.18290000
O       21.47250000      10.33650000      18.74820000
O       21.90570000      13.09490000      18.85370000
O       23.55190000      14.50020000      17.00310000
O       19.27850000      16.49120000      20.81360000
O       19.93630000      13.55900000      17.04010000
O       23.53180000      17.18910000      20.00880000
O       18.19100000       8.95892000      20.51170000
O       20.47870000      12.12430000      22.84900000
O       20.94710000       9.72207000      21.41800000
O       22.47460000      13.80900000      23.50870000
O       19.19890000      15.86840000      25.76280000
O       19.95650000      13.82690000      20.72830000
O       21.49490000      16.20920000      24.48230000
O       23.36670000      14.62480000      20.87280000
O       20.80210000      17.95500000      22.36350000
O       21.85000000      23.45620000      11.96830000
O       19.92440000      18.82140000      11.44970000
O       22.45970000      17.24080000      10.63340000
O       23.38920000      18.36030000      12.88400000
O       19.22610000      23.00040000      12.56080000
O       18.93760000      21.54540000      10.11280000
O       24.47990000      20.91010000      15.02120000
O       21.22270000      17.50950000      14.39910000
O       21.74120000      20.63950000      12.52750000
O       25.17570000      16.79990000      14.53050000
O       18.20770000      21.73600000      15.02200000
O       17.77970000      19.37100000      16.36390000
O       21.85570000      20.11440000      15.19130000
O       19.21580000      24.01140000      16.43350000
O       23.53590000      23.64410000      14.31730000
O       19.34430000      19.93160000      18.49630000
O       20.83620000      17.62330000      18.76060000
O       21.74820000      24.55120000      16.16440000
O       22.23460000      19.99160000      20.45250000
O       25.04490000      16.79490000      17.77660000
O       16.51140000      22.34790000      17.37550000
O       18.68070000      24.02860000      19.35220000
O       21.76720000      20.97880000      17.73470000
O       22.81960000      23.46810000      18.55420000
O       25.64240000      19.79630000      17.41960000
O       21.91280000      20.23500000      25.19070000
O       17.11790000      19.41610000      23.09610000
O       19.15850000      20.54120000      25.83760000
O       24.37430000      21.41300000      22.59490000
O       23.68870000      18.72750000      22.58260000
O       18.24940000      21.53730000      20.48210000
O       23.34800000      17.99160000      25.38880000
O       18.99110000      21.73740000      23.25910000
O       21.60830000      21.68170000      22.40020000
O       17.80010000      18.26880000      25.47440000
O       24.87620000      20.08220000      20.02000000
O       21.30250000      24.07350000      20.66680000
O       17.56140000      25.96740000      16.30580000
H       15.33630000      11.14170000      12.57920000
H       15.00470000      10.32740000      13.86560000
H       11.68480000      14.96540000      11.04920000
H       11.41120000      16.43340000      10.63220000
H       13.90650000      12.78040000      11.26390000
H       14.39920000      13.28910000      12.66420000
H       16.98110000      16.89430000      12.55560000
H       16.62250000      15.40660000      12.91110000
H       14.64170000      10.23500000      16.08260000
H       13.40580000       9.45879000      15.51750000
H       12.95890000      13.50310000      14.29180000
H       10.11720000      13.60440000      12.46800000
H       15.00490000      16.55470000      11.58700000
H       10.92070000      17.75830000      12.60790000
H       13.74950000      17.57590000      12.88600000
H       17.70220000      13.98660000      10.84630000
H       17.28100000      10.15890000      13.38970000
H       18.52050000      16.88150000       9.60926000
H       18.28190000      17.87260000      13.99430000
H       10.81290000      12.79060000      16.22530000
H       10.32820000      13.14630000      14.78510000
H       15.86660000      12.17980000      16.44230000
H       16.31250000      13.68120000      16.57690000
H       12.02730000      16.45910000      14.00520000
H       10.61220000      16.31370000      14.64360000
H       14.65660000      17.11620000      16.39740000
H       14.47000000      16.29130000      15.08270000
H       11.63710000      12.09890000      20.40900000
H       12.18560000      11.89110000      18.92420000
H       12.83220000      11.63240000      16.59210000
H       12.86580000      13.09950000      17.19850000
H       18.61550000      12.96800000      19.95840000
H       17.41200000      12.03480000      20.32380000
H        9.03256000      16.11690000      16.40330000
H        9.90825000      14.81280000      16.08060000
H       10.94680000      16.28350000      17.64010000
H       12.33200000      15.89450000      18.25400000
H       14.10440000      15.10780000      16.96960000
H       14.29120000      14.41520000      18.35830000
H       16.27980000      14.80000000      20.59660000
H       15.31040000      15.66680000      19.70540000
H       10.98310000      14.69670000      13.19180000
H       14.40700000      13.60070000      14.90590000
H       13.66570000      12.39010000      20.69680000
H        9.39087000      18.98790000      17.69870000
H       14.14850000      18.17880000      18.17900000
H       15.39940000      10.30320000      18.12730000
H       16.95640000      14.63330000      18.40970000
H       16.71710000      16.62970000      15.64340000
H       15.04570000       9.76766000      20.31000000
H       13.69050000      10.23910000      19.71490000
H       16.88960000      11.28970000      22.54060000
H       15.67750000      11.65100000      21.59090000
H       10.23040000      12.96860000      22.45310000
H       11.64760000      13.62740000      22.39590000
H       13.18430000      15.18610000      22.72720000
H       13.75490000      13.72800000      22.55770000
H       14.05120000      14.72840000      24.61760000
H       14.82070000      13.46560000      20.62050000
H       17.86330000      14.85040000      25.11280000
H       16.29080000      14.54070000      25.04390000
H       14.15050000      14.63140000      26.18320000
H       10.43610000      15.11540000      21.12050000
H       15.47900000      17.63630000      20.15720000
H       14.89110000      16.91770000      25.77660000
H       17.57980000       9.57826000      20.96750000
H       17.08350000      14.79760000      22.94890000
H       16.86690000      18.04810000      25.78960000
H       12.74600000      21.28120000      11.47760000
H       11.94820000      19.98980000      11.98220000
H       13.98310000      23.79800000      11.89560000
H       13.53930000      16.49230000      10.91090000
H       16.56200000      18.37610000       9.59661000
H       15.11860000      18.23450000      10.24750000
H       14.69240000      22.04260000      10.37030000
H       13.47320000      22.60490000       9.52902000
H       16.36480000      22.01760000      12.19060000
H       15.73240000      23.18340000      13.03850000
H        9.99015000      18.69160000      11.78490000
H       13.13120000      21.19200000      13.83320000
H       14.36760000      20.65390000      14.63910000
H       14.35020000      18.29930000      14.14890000
H       10.74070000      22.00670000      12.52870000
H       15.98020000      20.31470000      10.33680000
H       17.46040000      21.87950000      14.38810000
H       11.33150000      19.61590000      15.34860000
H       12.25350000      18.46230000      14.89690000
H       16.11310000      19.40260000      15.47520000
H       16.42840000      19.22610000      13.96460000
H       11.84920000      23.72770000      15.19160000
H       11.17730000      23.69380000      13.78810000
H       15.29180000      23.01430000      16.54600000
H       14.13280000      22.82880000      15.49090000
H       13.87500000      24.32630000      17.49910000
H        9.98317000      18.36840000      16.43780000
H       11.55900000      18.54820000      18.67970000
H       12.07180000      19.89340000      19.31980000
H       13.11680000      25.47700000      18.26130000
H       13.26250000      18.73430000      16.97560000
H       16.33400000      19.68740000      19.45280000
H       15.02710000      20.55120000      19.68950000
H       10.07070000      21.36530000      15.72330000
H        9.04552000      20.19580000      15.61600000
H       13.99480000      23.62790000      21.36410000
H       13.51840000      23.80570000      19.86900000
H       11.56640000      21.15520000      17.43990000
H       12.38170000      21.44710000      16.15250000
H       17.15230000      25.07230000      19.02600000
H       15.65150000      25.41600000      18.59590000
H       13.42760000      24.14630000      13.31810000
H        9.56768000      22.09080000      13.52240000
H       10.78580000      16.10890000      19.91760000
H       15.08180000      24.91240000      15.23180000
H       17.10320000      21.93300000      16.71390000
H       13.37000000      19.54840000      23.32920000
H       11.91610000      19.29960000      22.59680000
H       12.05880000      16.44960000      21.51110000
H       12.97270000      17.51530000      22.25360000
H       14.01750000      17.06940000      20.46370000
H       14.84180000      18.50310000      25.59120000
H       15.47280000      19.93380000      23.91650000
H       14.51470000      20.95950000      24.65500000
H       10.33250000      19.21760000      20.79300000
H       10.03880000      17.94130000      21.60320000
H       13.29660000      20.19360000      21.11050000
H       13.35750000      21.63160000      20.42270000
H       14.50190000      23.29270000      24.16980000
H       14.32440000      23.07250000      25.71620000
H       16.04250000      24.25370000      22.66240000
H       14.83430000      25.23330000      22.85330000
H       17.08690000      18.63730000      21.52100000
H       18.92120000      20.96220000      26.68110000
H       17.30710000      21.26360000      20.30890000
H       18.19540000      23.45330000      22.86630000
H       19.40390000      10.88660000      12.27800000
H       18.92460000      12.10960000      11.47730000
H       16.46700000      13.06290000      11.20230000
H       24.65600000      13.69740000      13.57410000
H       19.17500000      15.55750000      11.32020000
H       19.70190000      14.76710000      10.05580000
H       21.78920000      13.80210000       9.84370000
H       20.70690000      12.69730000       9.99434000
H       22.37540000      14.17640000      11.88200000
H       23.85270000      14.55660000      11.68280000
H       21.98320000      13.08630000      13.78580000
H       22.41680000       9.46530000      15.50960000
H       21.28300000      10.52240000      15.78410000
H       20.83010000      12.67130000      12.72210000
H       16.88920000      13.56400000      14.57120000
H       17.47250000      13.50400000      13.08940000
H       22.55090000      16.26180000      10.78130000
H       22.00830000      17.65940000      13.80810000
H       24.99020000      16.88790000      15.48270000
H       24.58620000      17.42690000      14.05360000
H       19.20490000      10.62860000      16.49650000
H       19.12530000      10.69170000      14.91600000
H       23.47970000      13.32920000      15.60490000
H       23.17790000      11.83120000      15.22420000
H       18.87060000      15.26570000      13.76470000
H       20.29170000      14.81180000      13.31220000
H       22.08800000      15.51670000      16.69190000
H       21.27210000      16.49540000      15.75660000
H       23.24550000      13.99940000      17.79380000
H       16.79940000      10.28210000      17.40940000
H       18.45690000       9.60453000      18.90670000
H       18.39250000      11.13510000      18.66400000
H       21.93690000      10.12420000      17.90150000
H       20.51400000      10.29430000      18.49310000
H       21.90080000      12.10260000      18.89480000
H       21.19710000      13.28410000      18.16600000
H       24.20580000      15.17450000      17.31040000
H       18.21710000      14.12060000      17.60900000
H       19.56900000      15.53900000      20.81410000
H       19.88460000      17.00360000      21.44190000
H       19.86510000      12.84810000      16.35910000
H       20.28180000      14.38750000      16.61380000
H       23.38850000      16.25610000      20.33550000
H       22.64610000      17.50770000      19.71240000
H       18.33370000       8.99713000      13.50240000
H       25.13270000      15.18700000      13.57660000
H       21.29040000       9.87531000      20.49910000
H       20.72480000      13.61380000      20.14410000
H       20.59500000      16.92520000      13.89200000
H       20.93390000      17.05130000      17.95100000
H       20.26040000      17.10510000      19.37680000
H       25.93900000      16.58870000      18.10160000
H       17.76520000      17.59320000      20.54430000
H       19.05520000       9.08420000      20.95750000
H       23.17360000      13.35090000      24.00780000
H       20.68470000      11.26060000      22.40950000
H       19.62900000      11.98350000      23.34560000
H       21.50440000       9.01863000      21.79740000
H       21.74670000      13.13430000      23.36970000
H       17.63900000      12.72890000      24.32580000
H       17.83320000      15.63450000      21.82710000
H       20.09710000      15.96230000      25.30310000
H       19.39570000      15.69190000      26.69900000
H       20.11020000      13.28350000      21.54630000
H       17.86400000      11.23470000      24.79040000
H       21.89010000      15.35250000      24.17730000
H       22.21570000      16.72120000      24.93820000
H       22.93560000      14.00290000      20.25220000
H       23.08450000      14.35290000      21.77520000
H       21.14880000      17.41180000      23.11010000
H       23.87730000      18.17730000      23.36850000
H       23.81370000      17.98530000      26.24150000
H       18.32830000      17.43860000      25.58110000
H       20.88410000      23.57170000      12.15320000
H       18.31530000      17.66780000       8.26735000
H       20.51020000      19.56540000      11.73800000
H       19.51080000      19.09930000      10.60870000
H       15.37180000      25.60240000      13.87260000
H       21.51810000      17.46850000      10.76830000
H       23.02770000      19.26500000      12.74920000
H       23.20370000      17.91450000      12.00040000
H       23.56990000      20.50330000      15.03200000
H       17.07160000      21.46410000      10.23940000
H       24.95020000      20.43980000      14.30990000
H       19.34960000      22.41530000      13.33930000
H       18.24750000      23.17140000      12.60130000
H       19.29850000      22.08530000       9.38901000
H       19.17760000      22.01850000      10.94760000
H       18.63400000      18.54080000      12.60660000
H       21.89930000      21.54920000      12.19620000
H       18.18590000      20.77870000      15.27160000
H       18.23520000      19.58100000      17.21700000
H       17.84060000      18.38370000      16.25650000
H       21.49110000      19.20170000      15.12640000
H       21.74880000      20.43350000      16.13180000
H       18.95290000      23.20790000      15.92560000
H       20.20060000      24.18800000      16.24200000
H       23.04390000      23.55770000      13.47360000
H       23.91850000      22.76030000      14.50890000
H       22.38500000      24.22780000      15.46780000
H       17.87120000      16.06190000      16.45010000
H       22.17540000      24.30190000      17.01590000
H       19.85150000      19.09070000      18.67390000
H       19.00610000      20.27810000      19.35580000
H       23.23030000      20.01620000      20.33370000
H       21.91290000      20.20640000      19.54910000
H       24.50550000      16.99850000      18.60530000
H       25.24830000      20.22560000      16.62440000
H       16.29410000      21.63020000      18.03060000
H       18.45590000      23.11230000      19.66780000
H       18.90990000      23.90980000      18.40010000
H       22.09800000      21.88500000      17.94450000
H       20.80570000      20.94580000      17.95320000
H       23.76350000      23.58500000      18.74450000
H       22.31900000      23.74150000      19.38640000
H       25.45130000      18.84150000      17.32810000
H       22.08890000      24.10870000      11.28860000
H       21.63110000      20.69710000      13.51120000
H       21.74070000      21.01380000      21.65320000
H       20.39440000      24.12400000      20.28770000
H       18.10490000      24.47580000      21.68840000
H       21.84530000      20.51880000      24.25570000
H       20.98870000      20.29760000      25.53430000
H       17.78630000      20.13440000      23.04540000
H       17.43480000      18.85800000      23.86300000
H       18.62900000      19.68510000      25.79720000
H       21.56440000      18.45810000      22.01040000
H       24.20630000      20.43210000      22.58660000
H       24.88320000      21.56920000      23.40900000
H       23.90940000      18.20890000      21.77600000
H       22.80980000      18.84390000      25.36700000
H       18.39310000      21.54580000      21.45120000
H       18.96680000      21.47640000      24.21380000
H       19.95980000      21.72390000      23.01790000
H       22.54660000      21.89320000      22.62690000
H       25.15800000      20.10770000      19.06360000
H       25.20960000      20.88280000      20.46170000
H       21.28970000      23.31940000      21.29770000
H       17.12510000      25.91740000      17.27040000
H       18.24860000      25.19050000      16.26090000
H       16.79300000      25.86330000      15.60340000
