178
Lattice="30.0 0.0 0.0 0.0 30.0 0.0 0.0 0.0 30.0" Properties=species:S:1:pos:R:3 pbc="T T T"
O       13.12530000      13.65480000       9.43875000
O       11.95470000      10.94560000       9.28918000
O       11.45530000      14.66130000      11.36030000
O       13.52150000       9.52601000      11.20560000
O       10.07510000      12.32260000      11.22610000
O       11.79920000      11.90700000      13.43570000
O       12.90860000       9.51301000      17.24720000
O        9.87471000      13.81810000      17.52020000
O       13.10010000       9.68312000      14.29530000
O       13.28250000      13.84400000      16.97470000
O       11.83260000      11.85700000      18.29890000
O       13.64980000      12.75120000      20.36150000
O       13.64360000      15.44430000      19.36940000
O       13.13960000      17.97600000      10.67620000
O       10.68320000      17.67000000      11.35850000
O       10.12420000      16.45330000      13.95040000
O       13.73100000      15.22460000      13.17370000
O       11.12040000      20.28930000      12.39770000
O        9.40841000      18.06310000      16.47090000
O       11.11770000      14.03800000      14.94710000
O       13.44320000      16.69760000      15.55140000
O        9.94261000      20.61660000      14.97530000
O       12.20440000      20.89870000      16.52120000
O       16.01400000      15.79890000      15.96970000
O       14.06670000      19.32650000      15.52210000
O       11.04660000      16.23280000      17.35820000
O       11.61920000      17.40930000      19.88420000
O       10.52920000      19.58390000      18.58460000
O       16.15340000      18.99890000      19.19740000
O       16.72410000      11.96640000      10.79580000
O       14.03750000      12.22740000      11.66630000
O       16.48700000       9.19964000      11.07440000
O       14.79090000      15.66620000      10.64120000
O       17.82580000       9.59184000      13.74100000
O       15.77950000      13.53410000      14.21810000
O       20.41350000      13.41590000      13.37030000
O       15.72490000      10.16640000      17.44310000
O       15.57240000      10.81230000      14.76610000
O       18.06320000      13.20910000      16.12320000
O       19.57540000      11.38750000      14.80650000
O       20.30180000      10.83590000      17.57530000
O       15.75490000      12.76850000      18.01960000
O       17.45730000      13.97490000      19.75340000
O       18.14080000       9.43032000      18.43520000
O       19.87980000      13.64380000      18.25340000
O       17.43420000      15.99580000      10.51950000
O       18.09750000      18.17030000      12.16150000
O       17.90840000      13.81790000      12.26320000
O       13.98370000      19.63290000      12.78470000
O       18.02240000      17.11260000      14.69370000
O       20.78430000      17.91660000      12.75440000
O       16.50550000      20.40380000      12.25410000
O       18.38800000      19.40160000      16.08050000
O       16.21180000      16.31000000      18.69710000
O       20.48180000      15.91100000      14.75210000
O       21.14580000      16.09060000      17.36000000
O       20.32710000      18.64570000      18.03900000
O       18.67780000      19.56890000      20.11790000
O       16.15900000      20.07190000      16.94950000
H       12.73690000      12.83140000       9.06858000
H       12.39270000      14.08570000       9.95584000
H       12.48820000      10.32230000       9.84781000
H       11.54770000      10.39580000       8.59730000
H       10.82550000      13.88250000      11.38130000
H       13.75840000      12.72100000      10.85440000
H       14.42100000       9.16142000      11.04900000
H       13.71940000      10.46230000      11.46990000
H       10.53010000      11.84030000      10.50410000
H       10.49370000      11.96310000      12.04550000
H       12.60650000      12.20250000      12.95780000
H       11.52790000      12.67770000      14.00880000
H       12.85960000       9.42092000      16.27200000
H       13.87150000       9.56438000      17.44450000
H        9.96319000      13.65310000      16.55580000
H       10.37540000      13.07270000      17.92730000
H       13.17520000       9.22041000      13.43630000
H       12.49510000      10.45130000      14.09620000
H       13.25510000      14.54530000      17.66900000
H       12.75090000      13.09800000      17.37300000
H       11.90090000      14.21970000      15.51190000
H       14.67560000      10.45500000      14.52640000
H       15.06120000      16.05860000      15.84870000
H       12.12020000      10.97630000      17.93350000
H       12.31860000      11.97340000      19.14970000
H       13.56200000      13.71770000      20.18270000
H       14.45100000      12.51200000      19.85600000
H       11.25920000      16.52580000      18.27630000
H       14.96890000      13.15630000      17.55970000
H       13.54900000      18.51260000      11.40300000
H       13.73860000      17.20390000      10.54320000
H       10.14720000      17.72340000      10.54730000
H       10.90980000      15.46980000      11.33000000
H       11.66700000      17.71460000      11.04510000
H       14.49480000      15.49170000      11.57670000
H       13.23720000      20.23990000      12.60790000
H        9.85268000      17.12580000      14.60450000
H       10.27280000      16.93000000      13.10610000
H       13.54120000      15.82060000      13.94530000
H       12.85620000      14.93250000      12.83070000
H       10.68160000      20.93850000      11.81940000
H       10.88890000      19.40200000      12.02120000
H       10.01130000      17.30190000      16.79300000
H        8.49909000      17.73220000      16.58700000
H       11.40140000      20.90770000      15.93040000
H       10.82810000      14.90210000      14.56050000
H       12.67830000      16.52300000      16.14420000
H       13.57910000      17.69030000      15.55670000
H       10.28420000      20.46070000      14.06380000
H        9.65847000      19.74460000      15.31410000
H       11.85000000      20.54990000      17.36420000
H       14.07430000      19.50060000      14.53890000
H       10.03050000      19.12890000      17.85650000
H       10.64670000      15.31130000      17.46280000
H       11.28810000      18.28560000      19.55730000
H       11.05770000      17.17300000      20.64330000
H        9.91462000      20.25470000      18.93520000
H       13.09290000      16.19870000      19.66260000
H       17.29150000      12.60700000      11.33570000
H       16.66290000      12.35880000       9.90748000
H       15.02120000      12.20690000      11.61290000
H       16.64760000      10.16650000      10.92360000
H       16.97410000       8.73803000      10.36930000
H       14.36180000      14.97120000      10.09050000
H       18.83310000      13.69670000      12.60760000
H       16.97020000       9.96498000      14.07890000
H       17.61480000       9.29111000      12.83450000
H       16.53270000      13.66590000      13.59320000
H       14.99640000      13.95080000      13.78810000
H       20.18250000      12.57650000      13.90170000
H       21.17930000      13.18270000      12.81930000
H       16.60360000       9.80571000      17.75600000
H       15.79030000      10.29840000      16.45970000
H       20.28970000      11.76790000      17.88490000
H       15.56990000      11.78460000      14.55920000
H       17.22990000      13.00820000      16.60010000
H       18.69980000      13.41660000      16.85270000
H       19.04730000      10.68050000      14.33850000
H       18.89200000      11.95530000      15.26520000
H       20.21920000      10.89600000      16.59640000
H       16.07250000      14.90040000      15.56060000
H       20.48170000      15.00920000      14.34690000
H       15.70970000      11.77430000      17.85320000
H       18.94750000       9.94540000      18.13010000
H       16.83300000      13.46170000      19.16340000
H       17.28950000      13.65390000      20.65630000
H       18.39470000       8.49583000      18.36740000
H       14.55550000      15.79960000      19.21180000
H       19.20850000      13.81600000      18.95020000
H       16.43160000      15.89680000      10.48470000
H       17.73610000      16.03580000       9.59522000
H       17.86360000      17.48440000      11.48920000
H       19.08780000      18.17870000      12.21470000
H       14.84630000      20.05460000      12.50950000
H       17.90900000      14.62160000      11.68930000
H       17.21180000      16.64620000      15.03790000
H       17.85640000      17.40840000      13.75920000
H       21.63170000      17.94290000      12.28130000
H       20.85940000      17.19200000      13.42250000
H       17.13140000      19.63720000      12.14710000
H       16.84080000      21.11540000      11.68590000
H       19.06360000      19.18400000      16.76530000
H       18.28560000      18.56150000      15.54620000
H       16.77780000      15.65700000      19.17140000
H       16.25610000      16.05910000      17.73550000
H       19.52550000      16.20340000      14.76150000
H       22.10250000      15.92840000      17.44350000
H       20.94850000      15.98010000      16.37390000
H       13.33280000      19.92800000      15.89020000
H       21.11550000      19.20510000      17.91270000
H       20.62970000      17.71580000      17.84000000
H       19.34770000      19.16270000      19.51780000
H       18.95340000      19.35370000      21.02530000
H       17.02320000      19.22650000      19.62270000
H       20.33620000      14.49600000      18.06910000
H       16.17760000      18.01190000      19.07790000
H       16.10320000      19.61120000      17.91590000
H       17.10770000      19.79040000      16.54280000
H       15.38860000      19.76960000      16.35600000
